#strain stress_x stress_y stress_xy hydrostatic_stress vonmisses_stress strain_conventional
1e-05 -0.142504525331687 -0.408690754394584 -0.104446760907203 -0.0152549587070321 0.0398982031873502 -4.7584730353944e-20
2e-05 -0.0097037368495147 -0.409497017686608 -0.0665557735457469 -0.011384128568174 0.0560388857788166 9.99999999994634e-06
3e-05 0.16117860925618 -0.291323449306056 0.0590746726882139 -0.00242260894471893 0.048352973945304 2.00000000000345e-05
4e-05 0.115276998015493 -0.183058609527796 -0.0173305579816053 -0.00276472115889346 0.0384572966922069 2.99999999999809e-05
5e-05 -0.187047351688612 -0.476620101084816 -0.0473257141682694 -0.028030699902945 0.0645169437506345 4.0000000000069e-05
6e-05 -0.318331428908622 -0.537672560866126 -0.0741672981807774 -0.0165647297702454 0.0706746806016646 5.00000000000154e-05
7e-05 -0.031971883837343 -0.441013140891845 -0.0195228941458644 -0.0164001613094572 0.0484371901119337 5.99999999999618e-05
8e-05 0.0199185195716051 -0.252629848609516 0.131666364526474 -0.00619192546874047 0.0551838029595755 7.00000000000499e-05
9e-05 -0.00636546477459322 -0.39179838258917 0.0237768233862655 -0.0129826990265921 0.0605877619104003 7.99999999999963e-05
0.0001 -0.149616120562579 -0.445268958901258 -0.091918502458648 -0.0215645413332231 0.0602112238535442 8.99999999999427e-05
0.00011 -0.00718752015728539 -0.553317629135729 0.00721740451080161 -0.00887670737647263 0.0817041201546787 0.000100000000000031
0.00012 0.0105105431115331 -0.369425246255984 -0.070869671865544 -0.00966882738676055 0.0397519974868917 0.000109999999999977
0.00013 0.0118402780854227 -0.490410343817957 0.0723215052397886 -0.0106679742736946 0.0665016561171291 0.000120000000000065
0.00014 0.109100798883306 -0.233645220676586 0.0428138946141212 -0.000219411097948224 0.0484547577660653 0.000130000000000012
0.00015 0.102092558990327 -0.321835275768793 -0.000821321979088661 -0.00290616002986127 0.040081191545438 0.000139999999999958
0.00016 -0.00562538448461955 -0.264874199588655 0.0202043999707752 -0.00678919180673917 0.0468143497390316 0.000150000000000046
0.00017 0.0142653963200237 -0.401270048351297 0.0783336404766235 -0.0171001914237948 0.0344676537073161 0.000159999999999993
0.00018 -0.130898604124023 -0.285839271394166 0.0443822402476523 -0.00882884269082891 0.0492596945391815 0.000169999999999939
0.00019 0.0664984153810085 -0.186780844886158 0.0458362160403938 -0.0052330156357366 0.0459578336176334 0.000180000000000027
0.0002 0.072570173777445 -0.317133099029084 0.125857648284437 -0.00905774855971131 0.0437361646910008 0.000189999999999974
0.00021 -0.0557657331525041 -0.381857788802441 0.121500349056574 -0.0103040572651812 0.0509106930708108 0.000200000000000062
0.00022 -0.158092017306506 -0.359362867622253 0.0440662420971186 -0.0152812106976472 0.0379716980222531 0.000210000000000008
0.00023 0.0497248366547319 -0.296710963962558 0.0790400012684453 -0.00545316031489987 0.0616055672034342 0.000219999999999954
0.00024 -0.0704807383938658 -0.231469029505067 -0.0554123262878985 -0.00883996469826172 0.0392541575192327 0.000230000000000043
0.00025 -0.101045283147588 -0.377433389683048 0.108685092612534 -0.00834343042811374 0.060588465570264 0.000239999999999989
0.00026 0.139336445463082 -0.227401871451456 0.0921702470261244 -0.00112810339099545 0.0502756277679891 0.000249999999999935
0.00027 0.029636882670044 -0.336811109675384 -0.0405682407477183 -0.00668979046448402 0.0334782087365973 0.000260000000000024
0.00028 -0.0234533765484519 -0.190127226981513 0.163710558072537 -0.00823879845765019 0.031166971938926 0.00026999999999997
0.00029 -0.0137774077275677 -0.368594576286648 0.112612469563144 -0.0117788103092261 0.0700271877988327 0.000280000000000058
0.0003 -0.113827172737982 -0.366144627614903 0.167526593210195 -0.00840603444572304 0.0492955429649565 0.000290000000000004
0.00031 0.0937845066292893 -0.237934857759047 0.151041529912065 -0.00628467602377808 0.0411145998908174 0.000299999999999951
0.00032 -0.012121407741894 -0.363900314836616 0.0440627675875141 -0.0114262734705943 0.0171929812754579 0.000310000000000039
0.00033 -0.0796123041740368 -0.376854161002359 0.113935360989718 -0.0126171733867114 0.0554595499378485 0.000319999999999985
0.00034 0.158288144035917 -0.322207741916918 0.151422611920179 -0.0040067260125121 0.0492147727367449 0.000329999999999932
0.00035 0.169843808905575 -0.263118033772072 0.118486975615089 -0.00448492841540908 0.0423651256131748 0.00034000000000002
0.00036 -0.033095305537599 -0.454865027220759 0.158386186586328 -0.0120351380995601 0.0819324831988307 0.000349999999999966
0.00037 0.00803238697670922 -0.254720078326041 0.21743179059058 -0.0093238673851412 0.0600001658309569 0.000360000000000054
0.00038 0.24788862747191 -0.212201017101243 0.114368447454256 -0.00145890290088064 0.0431449048697277 0.000370000000000001
0.00039 0.136025968394474 -0.30658730454673 0.0380993150319464 0.000598497164065994 0.0547959282121431 0.000379999999999947
0.0004 0.0501311604835077 -0.387293785383706 0.193912700114254 -0.00447927465424749 0.0563798598179991 0.000390000000000035
0.00041 0.171963607807035 -0.0815877491854055 0.147817524212366 0.00357526441745123 0.0369001708405802 0.000399999999999982
0.00042 0.294446121854184 -0.261728251123399 0.175293172778744 0.00262509252593721 0.0562387924394589 0.00041000000000007
0.00043 0.0966478344946186 -0.235978711298218 0.179945625813924 -0.00271933745415055 0.0469298656740699 0.000420000000000016
0.00044 -0.00365271052879534 -0.207929380995359 0.0929708915777344 -0.0081617216618031 0.0445501256360425 0.000429999999999963
0.00045 0.134004005805478 -0.496851725552414 0.194646788756477 -0.0098948960650368 0.0637041767641659 0.000440000000000051
0.00046 0.12692522672692 -0.166010127352899 0.11590264268034 -0.00160269462522482 0.038296060467253 0.000449999999999997
0.00047 0.0975285423673923 -0.234163115095931 0.13059880524579 -0.00413069800756556 0.073095985869796 0.000459999999999943
0.00048 0.0771459956496642 -0.179193910366981 0.175810621795662 -0.00202342841178725 0.0347033745836323 0.000470000000000032
0.00049 0.0515658410079333 -0.309589238862114 0.124316992886964 -0.00651790368627656 0.0442956795638604 0.000479999999999978
0.0005 0.161193725622328 -0.24548320092354 0.150949259009692 -0.00745753646143562 0.0730294927493007 0.000490000000000066
0.00051 -0.0734190504686334 -0.253491097433493 0.226009854965609 -0.0105001936340203 0.0704749030352563 0.000500000000000013
0.00052 0.251291018113642 -0.33528198659653 0.139233785838446 -0.00648676893642989 0.0298223705642821 0.000509999999999959
0.00053 -0.0566957129664525 -0.225166111343939 0.14467713579942 -0.00819229042913629 0.0363792498994467 0.000520000000000047
0.00054 0.11435335551045 -0.347000406440045 0.285313189417692 0.001996802284494 0.0812217492060527 0.000529999999999993
0.00055 0.0245271816713676 -0.224573452676329 0.123574362001237 -0.00963383178967907 0.0403861247552488 0.00053999999999994
0.00056 0.0451687127342336 -0.521094942411866 0.152870551037459 -0.0191074662169352 0.0429722876309638 0.000550000000000028
0.00057 0.195978715467582 -0.212098127746847 0.242230752629995 -0.00235774278978589 0.0632837629647321 0.000559999999999974
0.00058 0.0464138740877652 -0.225219699289095 0.180619816073883 -0.00284790342246135 0.045507523967633 0.000570000000000063
0.00059 0.14032696839727 -0.368302345856647 0.157022325514815 -0.0145987183166988 0.0686467664945895 0.000580000000000009
0.0006 0.102513587280542 -0.312555031635226 0.318038543137111 -0.00669044847496943 0.0589006644366208 0.000589999999999955
0.00061 0.0903873452942397 -0.223999973720413 0.168760485644708 -0.00529105415585287 0.0416307421357801 0.000600000000000043
0.00062 0.0146958372924094 -0.240325095080993 0.200371159617298 -0.00992581987416361 0.0387707570610121 0.00060999999999999
0.00063 0.00242399194365628 -0.383212193336901 0.167039124114321 -0.0133357684877624 0.045150952941886 0.000619999999999936
0.00064 0.0530083881915977 -0.315853578568814 0.221237307076042 0.00127056105825387 0.089105507238419 0.000630000000000024
0.00065 0.18372043347284 -0.22971253544641 0.193565453488087 -0.000782954187829781 0.0678336275905165 0.000639999999999971
0.00066 0.00614704458057095 -0.342060407310778 0.205055921482654 -0.0116931331199418 0.0676820477860091 0.000650000000000059
0.00067 0.158275179231394 -0.30002362718897 0.267568703850953 -0.00521781968603601 0.0588621784362968 0.000660000000000005
0.00068 0.206754552039455 -0.277647210928951 0.313326110136415 0.00405258534799271 0.0674542267974483 0.000669999999999952
0.00069 0.0759952533361789 -0.280790666474043 0.365905326555981 -0.00869083582854713 0.0671861804220662 0.00068000000000004
0.0007 0.114013619702412 -0.25348375908314 0.248629384893924 -0.00463395495203747 0.0574630421294451 0.000689999999999986
0.00071 0.160078443752124 -0.462661769608261 0.257290913099286 -0.00493714454149088 0.070072574246238 0.000699999999999933
0.00072 -0.0235359673861887 -0.104848170603955 0.140293146726429 -0.00992292293490296 0.0418889258808898 0.000710000000000021
0.00073 -0.034105039151282 -0.252868123322046 0.125187643067935 -0.0108452619025309 0.0771501255547207 0.000719999999999967
0.00074 0.293801652358495 -0.530406358462648 0.149084697867542 -0.00182817641717266 0.0628121520026794 0.000730000000000055
0.00075 -0.0456682598002002 -0.257911088364102 0.279452414833351 -0.00993624721236037 0.0543713161147339 0.000740000000000002
0.00076 0.0667471818391997 -0.408353940659704 0.232457331015494 -0.00980837711228307 0.0538562050323561 0.000749999999999948
0.00077 0.0441202318060625 -0.263207619883147 0.309679596724549 -0.00099798138223152 0.0717513519168954 0.000760000000000036
0.00078 -0.0953256335178789 -0.315731324535342 0.252596599154208 -0.0161916218774697 0.0748773421669378 0.000769999999999983
0.00079 0.103820444024143 -0.222816303102091 0.225947222813534 -0.00227962969400566 0.0480216005131943 0.000780000000000071
0.0008 0.0202335895547188 -0.286102363767072 0.250861641729674 -0.0076826197279852 0.0590893077378446 0.000790000000000017
0.00081 -0.0461845540826832 -0.340747777826603 0.263232333431441 -0.0157841962860206 0.0522676654010764 0.000799999999999964
0.00082 0.0601583068981327 -0.424612628668272 0.144782740750414 -0.00903055466846065 0.0746992689962983 0.000810000000000052
0.00083 -0.00706576765290659 -0.274605617258716 0.290614776230724 -0.0010099998630592 0.0824495970345673 0.000819999999999998
0.00084 0.0599124503858857 -0.414469681268861 0.2435854271292 -0.0129009896430433 0.0852171862159822 0.000829999999999944
0.00085 0.0706762844675922 -0.398792203438184 0.247202275767652 -0.0119605174002902 0.0507640857287161 0.000840000000000033
0.00086 0.0404081541474643 -0.340839348077244 0.293363762275294 -0.0107927845164918 0.0523801308720783 0.000849999999999979
0.00087 0.0277379919415879 -0.379833616245279 0.2827319719108 -0.00888870226107163 0.0662810049975933 0.000860000000000067
0.00088 0.048461057681176 -0.127497659559432 0.313009683335751 -0.00192466411436806 0.0626616480915697 0.000870000000000013
0.00089 -0.0467300461144542 -0.294179369918662 0.347186866440533 -0.0119970489042959 0.0739426247510467 0.00087999999999996
0.0009 -0.0191232264849379 -0.305487141498958 0.318437415856464 -0.0111901620966181 0.068459206624073 0.000890000000000048
0.00091 0.206941103214732 -0.299346197928272 0.319600753892603 -0.00347097341211136 0.0791098141841643 0.000899999999999994
0.00092 0.0742753390867043 -0.427042820890792 0.214606722490656 -0.010352414416236 0.0791427734174531 0.000909999999999941
0.00093 0.0197705903679958 -0.277097245885475 0.484960595658784 -0.0035905717602666 0.0850299034424664 0.000920000000000029
0.00094 0.19667015348215 -0.487070394732371 0.202263471899757 -0.0103231936248945 0.0643308648006929 0.000929999999999975
0.00095 0.180408929088359 -0.365103400984659 0.290159947583911 -0.0084175779081794 0.0655686977253142 0.000940000000000063
0.00096 0.219986116606648 -0.256106086559554 0.372206090433313 -0.00582381420269547 0.0545629543788527 0.00095000000000001
0.00097 -0.0588966030252252 -0.309976495346375 0.254982275816646 -0.0108738390905064 0.0730275405087429 0.000959999999999956
0.00098 0.058191743279192 -0.331127016841245 0.467426812021781 -0.0148319216170724 0.0781643339988888 0.000970000000000044
0.00099 0.212546791639071 -0.358794380865828 0.295250065236183 -0.00594245893209397 0.051836796512469 0.000979999999999991
0.001 0.061300849464208 -0.378434326413148 0.339768735652416 -0.00973955378198533 0.074001027184999 0.000989999999999937
0.00101 0.297995882687804 -0.271202145968097 0.317927632860165 -0.0059922833463855 0.0840324640946638 0.00100000000000003
0.00102 -0.00628222196350239 -0.244602042409423 0.247338520653682 -0.0065014687950357 0.0655396886675508 0.00100999999999997
0.00103 0.0148671418745332 -0.346778102550322 0.528183056490832 -0.00248733768260317 0.0957551872559377 0.00102000000000006
0.00104 -0.0412149719781887 -0.286086943320048 0.276459131266665 -0.003960435152171 0.0591914808992692 0.00103000000000001
0.00105 -0.136888358105572 -0.317554349369991 0.439142264850363 -0.0111219360426598 0.078718198076755 0.00103999999999995
0.00106 0.151228617032462 -0.354263845420593 0.368864543104804 -0.007591607616013 0.0721534865727317 0.00105000000000004
0.00107 -0.00453371073146321 -0.159760004830027 0.294572651679803 -0.00806035027003108 0.0597450553057329 0.00105999999999999
0.00108 0.180925738648619 -0.272372251504951 0.298458809108941 -0.00234465191951996 0.070744632465056 0.00106999999999993
0.00109 -0.0591993878457535 -0.14759247951176 0.296820481010147 -0.00465628927355988 0.0720505199710552 0.00108000000000002
0.0011 0.105887125774944 -0.294915710457845 0.386760979806573 -0.0030099419529766 0.0744717125823539 0.00108999999999997
0.00111 0.141995295591721 -0.256239689978116 0.320938756947061 0.000219921481795227 0.0792193453152444 0.00110000000000006
0.00112 0.152588100528539 -0.298638324266224 0.384211452095126 -0.00544348982509967 0.0877245719518685 0.00111
0.00113 0.0546985236964172 -0.365801828919296 0.291256446629954 -0.00919233065576372 0.0629922498237127 0.00111999999999995
0.00114 0.0456082032014389 -0.309186171185872 0.346719809545024 -0.0102555273554093 0.0761349662565589 0.00113000000000004
0.00115 0.071521207863372 -0.293610598269687 0.557197173599629 -0.00604302693276294 0.0917219202451265 0.00113999999999998
0.00116 -0.110196370416637 -0.336923206596647 0.413937860327511 -0.0151611051111982 0.070976640143906 0.00115000000000007
0.00117 0.0763140277062573 -0.35106904490384 0.49545707693213 -0.00542083327765049 0.0901681475298082 0.00116000000000002
0.00118 0.0998765878204239 -0.166021340713218 0.396531036711891 -0.00282499605502903 0.0465786282591133 0.00116999999999996
0.00119 0.107821282636222 -0.235293668074271 0.380530796352215 -0.00665616867744914 0.0865533219396791 0.00118000000000005
0.0012 -0.0140142494906532 -0.295813780330169 0.41278376238136 -0.0156702456112825 0.0857015451628727 0.00119
0.00121 0.0023478519528111 -0.303007931576445 0.307982419871408 -0.0119290941847753 0.0763356966457209 0.00119999999999995
0.00122 -0.000169798321999894 -0.142274427702647 0.518018918871491 0.00337818374015367 0.0732526291094569 0.00121000000000003
0.00123 0.0649216545029486 -0.33291509851798 0.342378344974195 -0.00654312573182477 0.0593107497500555 0.00121999999999998
0.00124 0.208811005787132 -0.370503828063067 0.471001012994228 -0.0166470533358001 0.113810301175069 0.00123000000000007
0.00125 0.00322743573353085 -0.315685382714361 0.416325242424742 -0.0127611702990965 0.0599923996812559 0.00124000000000001
0.00126 0.0357213317447921 -0.404907912457246 0.512770546748535 -0.0127358490630809 0.103896919364068 0.00124999999999996
0.00127 0.0142358089157207 -0.232142200048889 0.374907067323417 -0.0126286402881842 0.0526062584991228 0.00126000000000005
0.00128 0.07678394562042 -0.327375240174611 0.315515027784107 -0.0114263093907203 0.0843543656717054 0.00127
0.00129 0.146088060170025 -0.399578494939467 0.446263892850338 -0.0125781674835235 0.0916974905178702 0.00127999999999994
0.0013 0.0449412286588561 -0.309887183150868 0.446817107590435 -0.0128210227257567 0.0865347084545271 0.00129000000000003
0.00131 0.19906945495676 -0.472580568091478 0.350335461943118 -0.0060466263868746 0.0976971434288522 0.00129999999999998
0.00132 -0.047283217797643 -0.403669585785946 0.611621488606904 -0.013790818593676 0.0870931558355882 0.00131000000000006
0.00133 0.0765579731013332 -0.356528090719502 0.435788136872603 -0.0036095751839969 0.0910478444838023 0.00132000000000001
0.00134 0.156824424809306 -0.3065523626316 0.339140406196434 0.00244321201617989 0.0996391598795331 0.00132999999999996
0.00135 0.137552991844471 -0.274658442872177 0.483207943475043 0.00342122237810927 0.0930064372396471 0.00134000000000005
0.00136 0.163953627719374 -0.228284048072872 0.358855705355944 0.00175620349461126 0.0567298434124877 0.00134999999999999
0.00137 0.160613519745067 -0.227110516100583 0.417287566832047 0.00350008448463307 0.0896672241909203 0.00135999999999994
0.00138 0.250798554233511 -0.160753885183823 0.429616148643949 -0.000397906649671301 0.0789441247341487 0.00137000000000003
0.00139 0.221982335508354 -0.161914749575927 0.605730873959955 -0.0038976315446828 0.0882193123062888 0.00137999999999997
0.0014 0.0829739947905875 -0.253324060693273 0.479809118478962 -0.00353074838304938 0.0696098405587733 0.00139000000000006
0.00141 0.120097570987257 -0.299520314505218 0.470056514425383 -0.0147701857328438 0.10193270448219 0.00140000000000001
0.00142 0.124828107101977 -0.311365028664646 0.528140842939338 -0.00274899285547977 0.0833742743965634 0.00140999999999995
0.00143 0.0383833831813268 -0.282184611088446 0.62323484160159 -0.00552880593415468 0.0773167438884588 0.00142000000000004
0.00144 0.131397107298769 -0.319551758972612 0.414014658115903 0.00128397190798153 0.0986829316467853 0.00142999999999999
0.00145 0.296908981325857 -0.172963040716 0.415579161213377 0.00708944059144342 0.0767322503957266 0.00143999999999993
0.00146 0.204827211221508 -0.130652480277316 0.533023715314001 0.00288823609996964 0.0990035706872381 0.00145000000000002
0.00147 0.136723137724089 -0.334146446156497 0.550410042874152 -0.00678996183958828 0.0922443949038723 0.00145999999999997
0.00148 0.171399678650721 -0.1777859243332 0.434837670259119 -0.0011574940657354 0.0795837259109257 0.00147000000000006
0.00149 0.134103966977978 -0.101290826491908 0.488511762629589 0.00448334719549869 0.0956641291681426 0.00148
0.0015 0.172979201801042 -0.282945165963364 0.607520763036483 -0.000985484673645718 0.0938003079482723 0.00148999999999995
0.00151 0.0676010478729831 -0.397952268276144 0.554125539845722 -0.0045530036436164 0.105794817818549 0.00150000000000004
0.00152 0.0903143466181884 -0.393216118868153 0.505667044354578 -0.0104561119153731 0.0980042752829966 0.00150999999999998
0.00153 0.184453738935259 -0.141881910998788 0.632743988752561 -0.00124923733315908 0.108643917807779 0.00152000000000007
0.00154 0.0538332322073067 -0.405291608315956 0.584934667363902 -0.0119109701502983 0.0856811342069212 0.00153000000000002
0.00155 0.16558957863288 -0.167622148772225 0.530092454868569 7.00631368143796e-05 0.0781791677028559 0.00153999999999997
0.00156 0.195199148289828 -0.219210140576119 0.489107152833694 0.00831548971715225 0.0978811512670098 0.00155000000000005
0.00157 0.109939346124073 -0.0970591912765519 0.55418192004741 0.00082795041757401 0.0770258975136097 0.00156
0.00158 0.104568500258057 -0.190540966471639 0.520087146956294 -0.00252821429938416 0.0875248307478909 0.00156999999999995
0.00159 0.266969435005071 -0.245086091334567 0.550584823832732 -0.000369692219402353 0.103407030402158 0.00158000000000003
0.0016 -0.00421546221628569 -0.0478909173544421 0.564311282386353 -0.0032719841836883 0.0800635256321679 0.00158999999999998
0.00161 0.166235354018255 -0.254420067987883 0.5391493748892 -0.0032337641359618 0.0883326163333295 0.00160000000000007
0.00162 0.176948793470876 -0.148365060472873 0.564356000296834 0.0071373410589843 0.109631929113753 0.00161000000000002
0.00163 0.180889920998539 -0.122959826884963 0.643184976349185 0.00076665732531626 0.0796963404274117 0.00161999999999996
0.00164 0.134870746967712 -0.226516641916496 0.533955963751287 -0.00330781085973091 0.0768127741638161 0.00163000000000005
0.00165 0.156022655870171 -0.278226951745713 0.551004729793604 -0.00307365286858443 0.120903688350557 0.00164
0.00166 0.125332426881609 -0.301042884519105 0.649293207845305 -0.000726067877813394 0.0903341661368136 0.00164999999999994
0.00167 0.237001467776017 -0.188110407079838 0.550199698612996 0.00211451241272026 0.0877269618324285 0.00166000000000003
0.00168 0.169556491202603 -0.0711869051296335 0.665384420098147 0.00380931002689601 0.0954365705597861 0.00166999999999998
0.00169 0.119033236306984 -0.485871619880619 0.505666775764093 -0.0161141639636073 0.123622463021514 0.00168000000000007
0.0017 0.185591119584915 -0.24760771391475 0.68772331531929 -0.00447947207017949 0.115921111325302 0.00169000000000001
0.00171 -0.0205315231918193 -0.269056122804738 0.630386984795335 -0.00565663774874139 0.0943154973728601 0.00169999999999996
0.00172 0.358103316745193 -0.240295731042275 0.607602260954788 0.00348119806101072 0.118936895132618 0.00171000000000005
0.00173 0.258748984166584 -0.161558193031028 0.522172526640538 -0.00332724004923803 0.0948014009202107 0.00171999999999999
0.00174 0.242294214411778 -0.164012182346894 0.620133438736467 0.00412221290226914 0.0998143040901959 0.00172999999999994
0.00175 0.218519199199564 -0.135433524007022 0.672990215595311 0.0062172297447092 0.08560256244855 0.00174000000000003
0.00176 0.133309577557471 -0.245007565635848 0.55588086149239 -0.00195582334494424 0.109495410643485 0.00174999999999997
0.00177 0.200926258754059 -0.192783205171688 0.580875115747934 0.00156197293758272 0.100554738209496 0.00176000000000006
0.00178 0.16449856167973 -0.0971896415326646 0.649853405033713 0.00945971806180866 0.108668168426359 0.00177000000000001
0.00179 0.128290429775372 -0.293926591740048 0.604380269426292 -0.00298819781595903 0.104769139921074 0.00177999999999995
0.0018 0.0550717520494854 -0.104298935375645 0.527066907383851 -0.00416845056219923 0.0913362050360424 0.00179000000000004
0.00181 0.10232817311203 -0.100840801054035 0.697212577562344 -0.00204856659847785 0.0984707866350593 0.00179999999999999
0.00182 0.207153099310847 -0.218905987647135 0.660830978802431 0.00344405371650665 0.0938712892513243 0.00180999999999994
0.00183 -0.0389455742651386 -0.275169650286297 0.507854637839538 -0.0131973014869214 0.0972541147946537 0.00182000000000002
0.00184 0.312343119004735 -0.24172886374419 0.602541788374228 0.00135732569901088 0.118623692614581 0.00182999999999997
0.00185 0.294618469887487 -0.148913933520854 0.695956918630643 0.0090626820036977 0.100207887904052 0.00184000000000006
0.00186 0.179795992485346 -0.0919008428996164 0.662135738799748 0.00393397467928937 0.0907869298963247 0.00185
0.00187 0.122507648305332 -0.219681147654119 0.5712603646706 -0.00571765353348766 0.0860430592928807 0.00185999999999995
0.00188 -0.0204849173893165 -0.347357705332781 0.631234347623046 -0.00814937651740667 0.1201625148766 0.00187000000000004
0.00189 0.174977774390391 -0.0678427442918386 0.776735853357665 0.00378434373698915 0.132632924965795 0.00187999999999998
0.0019 0.317865439649013 -0.0877152891059739 0.675018954626497 -0.003179684670772 0.116984363491048 0.00188999999999993
0.00191 -0.00737967443971654 -0.377306181091101 0.655500042366788 -0.0108866197245302 0.109179737571823 0.00190000000000002
0.00192 0.121781236512638 -0.166039760522328 0.727525767412484 -0.00333368460550902 0.117651273353266 0.00190999999999997
0.00193 0.166334307940069 -0.249564197268948 0.611082110680218 -0.00558955386786209 0.108382125308096 0.00192000000000005
0.00194 0.150370389303758 -0.253269980981291 0.794202853075469 -0.00544900790282957 0.115781643973239 0.00193
0.00195 0.250374263635803 -0.250252897245135 0.608815928183646 0.000521062378116487 0.0819083677204997 0.00193999999999995
0.00196 0.207054682344909 -0.0655675714214877 0.70210518742951 0.00276965738181361 0.126562307225133 0.00195000000000004
0.00197 0.111810168584961 -0.0869726072126885 0.753389314018904 -0.000818230908521531 0.115042154388991 0.00195999999999998
0.00198 0.265645203064604 -0.3273372348349 0.693065206376476 -0.00304112478952347 0.101274263697561 0.00197000000000007
0.00199 -0.00871214556314828 -0.156884949866823 0.627561029885227 -0.00321633661949012 0.109180194943519 0.00198000000000002
0.002 0.0902675613275673 -0.288751212552742 0.643101477737503 -0.00846989764238262 0.113462295015524 0.00198999999999996
0.00201 0.237406362399151 -0.152900147513228 0.783395885654923 0.00602310099849037 0.123082499094808 0.00200000000000005
0.00202 0.0719088838083935 -0.161892208894389 0.773964832194601 0.00077005129555464 0.110559730012917 0.00201
0.00203 0.0834792240573576 -0.276768969193782 0.792248745067147 -0.0135668358142828 0.114882112677194 0.00201999999999994
0.00204 0.117428711219782 -0.29448576555982 0.636316840403056 -0.00351236452534487 0.129790275694409 0.00203000000000003
0.00205 0.233100946451451 -0.281540592654638 0.740559122539719 0.00168553682153608 0.123499598322674 0.00203999999999998
0.00206 0.0998821270792817 -0.320589596981443 0.810586766630718 -0.0123470552337791 0.120618756578273 0.00205000000000007
0.00207 0.0799011050936614 -0.219449571322355 0.725512687284106 0.00262946404417729 0.105971727780774 0.00206000000000001
0.00208 0.277473831585885 -0.224566165871986 0.684958650819668 0.00170675598636952 0.0961590186285617 0.00206999999999996
0.00209 0.179186254615065 -0.163133137438395 0.66565843831635 0.00279285064038361 0.125116716152932 0.00208000000000005
0.0021 0.148241473423624 -0.222485906157613 0.764602373485632 0.00077975582475664 0.106864160341419 0.00208999999999999
0.00211 0.0613796309092567 -0.16103553789557 0.684966246842503 0.000565811562535054 0.123041308206569 0.00209999999999994
0.00212 0.163167110207237 -0.221491608992743 0.721756397836558 -0.00199520220956127 0.124829074966704 0.00211000000000003
0.00213 0.112756744400935 0.0228285654378052 0.80701744500108 0.00156452641859361 0.121712193276584 0.00211999999999997
0.00214 0.201710104874169 -0.193269206403183 0.728178978996765 0.0022571024056848 0.119346745236916 0.00213000000000006
0.00215 0.148886362982751 -0.208371781399721 0.724060852010234 -0.00032458176242922 0.108812497661411 0.00214000000000001
0.00216 0.152799659845896 -0.0784094773752313 0.789863443755917 -0.00177912031560898 0.137156430031963 0.00214999999999995
0.00217 0.133335588043506 -0.42694667222303 0.785540475539283 -0.000691925095964701 0.134323588483757 0.00216000000000004
0.00218 0.22567379826125 -0.204112084631715 0.801035869721942 -0.00539962614155653 0.125801311614631 0.00216999999999999
0.00219 0.255954119484304 -0.13502871701604 0.897439478509385 0.00660250314919434 0.12463696993092 0.00217999999999994
0.0022 0.0599356748642731 -0.297572574405428 0.736080891908187 -0.00325951397961779 0.135705405149289 0.00219000000000002
0.00221 0.21567702038127 -0.185443261614161 0.75281752440117 -0.00358103458326897 0.121497689615691 0.00219999999999997
0.00222 0.244508956535186 -0.219232839955463 0.750532444866109 0.00597143581510367 0.110480580254863 0.00221000000000006
0.00223 0.0207082937321677 -0.252954745918577 0.791768811883394 -0.0007460522479074 0.130310228943435 0.00222
0.00224 0.235649241259317 -0.238816446566434 0.792158730202161 -0.00257917751239606 0.128144601807238 0.00222999999999995
0.00225 0.252575417893305 -0.318383960913256 0.673126578294753 0.002105422137371 0.1060182669497 0.00224000000000004
0.00226 0.193456998960868 -0.182888176207695 0.772193378417045 -0.00191211809606073 0.124240146675313 0.00224999999999999
0.00227 0.272611247361161 -0.00188423590286585 0.657710217062239 0.00966084561987742 0.0999688083882094 0.00225999999999993
0.00228 0.104300782738834 -0.212474804348478 0.740897995143883 -0.000195093655299926 0.133013926223871 0.00227000000000002
0.00229 0.0743350879999466 -0.304310651285741 0.897049927202179 -0.00672471313470934 0.127305821343887 0.00227999999999997
0.0023 0.167015737925738 -0.0994849981590352 0.676340329106661 0.00165737564134628 0.125160015928691 0.00229000000000006
0.00231 0.214098270606673 -0.283015339038262 0.859965528953733 0.00335506173916247 0.147183795733645 0.0023
0.00232 0.216289140190561 -0.267685487162851 0.929033029970684 -0.00851330921956393 0.124507119424975 0.00230999999999995
0.00233 0.224721989235848 -0.306562289386798 0.832326938065759 -0.0054645180207797 0.127731380761977 0.00232000000000004
0.00234 0.0403927686701932 -0.178073887092695 0.793568662102751 -0.00425802455686071 0.132354260084493 0.00232999999999998
0.00235 0.282304252100084 -0.162132884212967 0.802399115205511 0.0055822235748195 0.149645743151868 0.00234000000000007
0.00236 0.158125994209754 -0.472112152107363 0.908697390408737 -0.0100202665731696 0.113727020167276 0.00235000000000002
0.00237 0.121031323182113 -0.243296239574608 0.801321536770244 0.000882639837560098 0.124115316179552 0.00235999999999996
0.00238 0.224479425225911 -0.100978681266596 0.828704010010962 0.00711800486315382 0.13769182544992 0.00237000000000005
0.00239 0.255242948569707 0.010592956544704 0.86393606274053 0.00341028993839566 0.1288019722332 0.00238
0.0024 0.173655494004652 -0.130917868472383 0.807552885373962 0.0024844121431112 0.110608869304039 0.00238999999999994
0.00241 0.274577166527698 -0.17875697577321 0.887980174536801 -0.0040301282397751 0.142527546649467 0.00240000000000003
0.00242 0.342162617607897 -0.00460802476713677 0.87952040304152 0.0147644930471861 0.116002357970429 0.00240999999999998
0.00243 0.401182683735963 -0.0216791942703901 0.900563799244904 0.016039783249502 0.161268183743444 0.00242000000000007
0.00244 0.273493704409721 -0.121924369601008 0.952708588180214 0.00952521629633606 0.109223214965343 0.00243000000000001
0.00245 0.0757125748053936 0.0877672308779043 0.749547192674667 0.00217176653958426 0.117934879374783 0.00243999999999996
0.00246 0.363097975512437 -0.0218221960184757 0.866129108482024 0.00968320771318317 0.156397450164713 0.00245000000000005
0.00247 0.278474134817873 -0.235957124771246 0.817305595365866 0.00362996324509708 0.103121118617893 0.00245999999999999
0.00248 0.241484373406559 -0.0459381841647909 0.817357453834601 0.00465759456516748 0.13598110700192 0.00246999999999994
0.00249 0.275166776843788 -0.236977282984022 0.939164162636264 0.00116026538593054 0.148846858748637 0.00248000000000003
0.0025 0.216098096024689 -0.0501338595817535 0.920811400203156 0.00943281134438894 0.129210688887538 0.00248999999999997
0.00251 0.114961567398525 -0.171693954027961 0.897742045181323 -0.00054655374736878 0.116849711248097 0.00250000000000006
0.00252 0.231481780198445 -0.249452243864721 0.834814155260087 -0.000364697120142523 0.133728507434922 0.00251000000000001
0.00253 0.223781160047575 -0.0113662742473456 0.978715605402104 0.0119508721824161 0.171815103535182 0.00251999999999996
0.00254 0.266101945589836 0.00864985015664814 0.939386480990402 0.00967748457527902 0.127789017285414 0.00253000000000004
0.00255 0.0924490697432302 -0.0564121501453994 0.719449350042264 -0.00466576414356512 0.131944578693202 0.00253999999999999
0.00256 0.148243902785833 -0.1847522938745 1.00675179691527 -0.00263655841159796 0.150969017167891 0.00254999999999994
0.00257 0.320876628060042 0.071157594170732 0.933461528323677 0.00506291281355883 0.124133674575761 0.00256000000000002
0.00258 0.260307142995539 -0.0855468076440526 0.781444158524654 0.000971210716209387 0.130397603963557 0.00256999999999997
0.00259 0.105847512431907 -0.261667340014503 0.868798862550264 -0.00295913257320336 0.15069298736561 0.00258000000000006
0.0026 0.112003453987693 -0.0636184295623187 0.999424933415808 0.00567348241926953 0.130647823367672 0.00259000000000001
0.00261 0.375359410435306 0.0456464635053771 0.847030688798953 0.0100891206498243 0.150830993180304 0.00259999999999995
0.00262 0.199921547767399 -0.147771354070679 0.965110185205401 7.58647751296831e-05 0.135268866325285 0.00261000000000004
0.00263 0.243380896663138 -0.144535012374477 0.920762640128802 0.000729183498514677 0.150123316128019 0.00261999999999999
0.00264 0.31524379983191 -0.0946312135510412 0.882392755578374 0.00352100107309461 0.148152918570711 0.00262999999999993
0.00265 0.164443548035265 -0.127889072828523 0.892253426341301 -0.00211171556213053 0.142401811080982 0.00264000000000002
0.00266 0.321981314281138 -0.179625801765766 0.865425298952349 0.00906073867416247 0.140958196324994 0.00264999999999997
0.00267 0.214683183120716 -0.146849972819045 1.04442518908723 -0.00152378622090599 0.150207031118968 0.00266000000000006
0.00268 0.143861673364832 -0.0237441034038205 0.895853846183226 0.00415666559644868 0.136246573809495 0.00267
0.00269 0.368158805194815 -0.0797530668191079 0.950345543695071 0.00930844672126037 0.152414970998841 0.00267999999999995
0.0027 0.153170743118519 -0.211439477462373 0.879048304956697 -0.00321483765887019 0.146232848159164 0.00269000000000004
0.00271 0.204933398360668 -0.243614057549248 1.01653640138598 0.00386306948017154 0.160849470223305 0.00269999999999998
0.00272 0.256864937656658 -0.259109640017467 0.953326313747057 -0.00593609731418053 0.159209773953984 0.00271000000000007
0.00273 0.155004144761381 -0.101773529122896 0.971927957720849 0.00289412546105977 0.163805606796482 0.00272000000000002
0.00274 0.189115594177215 -0.156881322994236 1.08631248792354 -0.00874445044601411 0.153246627295774 0.00272999999999996
0.00275 0.168701811625278 -0.070810722189988 0.851317445603348 -0.0056295442866953 0.142333949731594 0.00274000000000005
0.00276 0.343400158308494 -0.142813428608381 1.00027429568808 0.00558040916135268 0.177393727313416 0.00275
0.00277 0.115714505352562 -0.0199454701741672 1.0835758681606 -0.00416512293229043 0.145346870383218 0.00275999999999994
0.00278 0.151851784177272 -0.285088730314705 0.920501498707995 -0.00373388055702932 0.153722664645634 0.00277000000000003
0.00279 0.203810127917172 0.00569800104763928 0.927088966956983 0.00955909504645025 0.145768111085324 0.00277999999999998
0.0028 0.267478518032784 -0.187985818705087 0.935433451026364 0.00321228538219696 0.137118394955579 0.00279000000000007
0.00281 0.287041307260789 0.0164339885869507 0.938833389217294 0.00868426924822936 0.154296852358767 0.00280000000000001
0.00282 0.264299759754209 -0.401647418930879 0.951315014418809 -0.00553353847526224 0.150760784977222 0.00280999999999996
0.00283 0.235714805523228 -0.209089336112077 1.08503716154244 0.0032291684485931 0.159526436807867 0.00282000000000005
0.00284 0.235300118542361 -0.0531762059314443 1.0063399679836 0.00714930554402952 0.137634993492594 0.00282999999999999
0.00285 0.242995723627059 -0.189806971547132 1.0066649078662 0.00387965773359514 0.168342919899902 0.00283999999999994
0.00286 0.109368978003341 -0.0830185302039295 1.04745809128805 0.00269770110999273 0.164312027196779 0.00285000000000003
0.00287 0.242308495140862 -0.218116452697753 0.980804056633962 -0.00197544421827487 0.150523821638468 0.00285999999999998
0.00288 0.260275113754442 -0.170554342287495 1.07545688990243 0.00486063190221214 0.158235582858144 0.00287000000000006
0.00289 0.276442697156396 -0.0620692658897261 1.01809571410779 0.00214897671897058 0.131848409819224 0.00288000000000001
0.0029 0.235606840583896 -0.223466029107486 1.01148871953655 -0.00815443409515903 0.158731936046345 0.00288999999999996
0.00291 0.196014731019851 -0.187223167208065 1.07497632132462 0.0115600442553688 0.157009835298893 0.00290000000000004
0.00292 0.27744880195984 -0.0608675695368399 0.986132067501217 0.00320529688233356 0.156471797816892 0.00290999999999999
0.00293 0.16894963643347 -0.0647151347443683 1.13200269500021 0.00351786527002642 0.186003173310982 0.00291999999999994
0.00294 0.17087288562044 -0.197867885390978 0.987541203732709 0.000584938797431499 0.129547532967373 0.00293000000000003
0.00295 0.254177270109547 -0.09408589648891 1.06092391120257 0.00876361163332963 0.159542663634919 0.00293999999999997
0.00296 0.199963218457765 -0.0830105347265623 1.03945491438798 0.000549748504535467 0.157095958866526 0.00295000000000006
0.00297 0.288894553940745 -0.256687134671673 1.08074852372097 0.00202544291501337 0.174065318406189 0.00296000000000001
0.00298 0.0786037431983643 -0.227549752247298 1.08590681804488 -0.00913056202361851 0.156143774511361 0.00296999999999995
0.00299 0.250039541005239 -0.0450186926338369 1.08497936275571 0.0138996168059252 0.138967176766324 0.00298000000000004
0.003 0.337196095394636 -0.057333699447995 1.1231097950405 0.00909227313051238 0.174624522036006 0.00298999999999999
0.00301 0.091810869595823 -0.290495603641576 1.07416853536429 -0.00402894933045386 0.157493368171534 0.00299999999999993
0.00302 0.246876483370933 -0.162254621798575 1.00965893244048 0.000243935656983234 0.148611031858886 0.00301000000000002
0.00303 0.301756248187583 -0.124653721837983 1.11378116362857 0.004528247680786 0.159759455917618 0.00301999999999997
0.00304 0.161162772947851 -0.221118883893909 1.09517999079811 -0.00552994720840297 0.177866001208449 0.00303000000000006
0.00305 0.0775451214620199 -0.248557631446149 1.08221530574198 -0.00605608258364032 0.16439440579035 0.00304
0.00306 0.16788200099576 -0.138734173095151 1.10152057312538 0.00570955036924423 0.184157388572939 0.00304999999999995
0.00307 0.463064689530301 0.00449049917649837 1.11208439280281 0.00844606604197093 0.154565818235148 0.00306000000000004
0.00308 0.374330939859008 0.0939100633026975 1.00643141732266 0.0127925800751671 0.169859208038876 0.00306999999999998
0.00309 0.384080817676548 -0.259677566291048 1.10283798375348 -0.00129140971073341 0.170536333111589 0.00308000000000007
0.0031 0.256203554474902 0.0115124034807456 1.16839662781444 0.011360134790963 0.154535474730365 0.00309000000000002
0.00311 0.389963179673221 -0.163908899076312 1.09317759366418 0.00548444167579743 0.182368074458518 0.00309999999999996
0.00312 0.0909373362209055 -0.0745549649177571 1.16639433148995 0.00232455048497552 0.169945866332209 0.00311000000000005
0.00313 0.169860637038868 -0.21655078039129 1.04983523169819 -0.00753610919291467 0.169002932736547 0.00312
0.00314 0.36170849331768 -0.00589688318944183 1.06051245471014 0.00588174175314073 0.169105755344543 0.00312999999999995
0.00315 0.157706100438565 -0.03199327984588 1.11390929872381 0.00358641778219965 0.164798788061416 0.00314000000000003
0.00316 0.316923302188953 -0.27076823079866 1.21321842100825 0.00340107244995713 0.188575104761029 0.00314999999999998
0.00317 0.2479399956086 -0.190662161544886 1.20998494114327 -2.348369358932e-05 0.185966883377448 0.00316000000000007
0.00318 0.284751613915627 -0.110504659888431 1.11832629260894 0.00401535937724373 0.180300864085567 0.00317000000000001
0.00319 0.367357220806409 -0.163742556261149 1.16290641106529 0.00584093772495442 0.175654517104066 0.00317999999999996
0.0032 0.398216719169873 -0.088127099767483 1.11869789962643 0.00968966702759727 0.176843989417936 0.00319000000000005
0.00321 0.267649663158886 -0.126341145907766 1.09628583767123 0.00278618637896236 0.197312116804287 0.0032
0.00322 0.224508621509725 -0.0476210104652211 1.14525115624794 0.00667871157722608 0.156914181395353 0.00320999999999994
0.00323 0.243757494054988 -0.0537528268873368 1.07148621245262 0.00501189025411065 0.164773519920446 0.00322000000000003
0.00324 0.176504149241289 -0.12891381089865 1.10972585735856 0.00298497112286036 0.20754736058005 0.00322999999999998
0.00325 0.323037920730763 -0.241392620602836 1.19014813542646 0.00307789956247695 0.172451544721202 0.00324000000000006
0.00326 0.376814803538429 -0.00353118974796664 0.977763091017566 0.0114163150703509 0.147104738945191 0.00325000000000001
0.00327 0.268197508904263 -0.0272178975044402 1.16552482712305 0.00414811763224142 0.177595643947216 0.00325999999999996
0.00328 0.197408099063168 -0.173512558291908 1.13332544825151 -0.00706731333315277 0.198742735894368 0.00327000000000005
0.00329 0.271797287030662 -0.229724225226669 1.24789910420005 0.00487165845200829 0.198420361527875 0.00327999999999999
0.0033 0.237662519989665 -0.007276783680146 1.266280017894 0.00341339865664555 0.177150052105706 0.00328999999999994
0.00331 0.302315444587498 -0.0703150189077594 1.08645968454668 0.00502071987025209 0.163888205681925 0.00330000000000003
0.00332 0.23436884054345 -0.314735268029901 1.32300902995954 -0.00222823406090308 0.202355390112554 0.00330999999999997
0.00333 0.192505029811009 -0.0400641296170216 1.27273431575336 0.00441283171454155 0.170794391232406 0.00332000000000006
0.00334 0.342515071904126 0.0511529932701662 1.13776915611861 0.00965432734956946 0.193948979127814 0.00333000000000001
0.00335 0.211155187689199 -0.267199602540533 1.16926165120808 -0.00284722163093451 0.17155355464278 0.00333999999999995
0.00336 0.191260665124419 -0.189895513367492 1.13522908569146 0.00202062589260141 0.189529551277852 0.00335000000000004
0.00337 0.242578334552707 -0.3099467864228 1.19531283651716 -0.00273349154849218 0.19110924924851 0.00335999999999999
0.00338 0.228860970902573 -0.0845273318374934 1.24698873751965 0.00151913888954663 0.179131688447293 0.00336999999999993
0.00339 0.246385762253614 -0.178388701131454 1.07988883457376 0.00374393452820782 0.174270606923371 0.00338000000000002
0.0034 0.196301333147015 -0.256866926375375 1.15341397780325 -0.00616757746147783 0.178199031972176 0.00338999999999997
0.00341 0.312207926473154 -0.112532986316108 1.13755688822486 0.00591857714829387 0.200366809557357 0.00340000000000006
0.00342 0.22331102359694 -0.0200261785816615 1.3561842009902 0.000823860678871393 0.186174864793147 0.00341
0.00343 0.176696830689173 -0.14297206938736 1.11547948798563 0.00528175904755447 0.170753141425802 0.00341999999999995
0.00344 0.284640888760673 -0.230119338879625 1.27671287998054 -0.00553382414066807 0.194089180151783 0.00343000000000004
0.00345 0.168092964123347 0.0769053107890623 1.15169547342865 0.00601602671927474 0.161445377670598 0.00343999999999998
0.00346 0.279012140919867 -0.157662031904837 1.23488704809154 0.0113621179583911 0.204047640028106 0.00345000000000007
0.00347 0.285618884371079 -0.160690851017253 1.23655576305238 0.00203699239555133 0.197209243862092 0.00346000000000002
0.00348 0.435109170219535 -0.152860313961404 1.17557855783733 0.0108747815634193 0.209370395885509 0.00346999999999997
0.00349 0.266685425228117 -0.167495485990037 1.29991854579823 0.00733194374976119 0.18774039373985 0.00348000000000005
0.0035 0.165197088196336 0.00370212993825401 1.22000100913624 0.00620618815359748 0.192335711052128 0.00349
0.00351 0.297341614715412 -0.22395630271225 1.23707911762705 0.000932660122726053 0.18665618692987 0.00349999999999995
0.00352 0.285034200800012 -0.221111240276416 1.12828120897051 0.00419334957877643 0.158401300711826 0.00351000000000003
0.00353 0.302223862803614 -0.0984433122090355 1.2803175794129 0.011433272817509 0.21435072428937 0.00351999999999998
0.00354 0.277589198380205 -0.200997740113349 1.31054465930525 0.00600793927909733 0.184536028191365 0.00353000000000007
0.00355 0.164797291149045 -0.231110339747381 1.19852902131348 -0.00485371872192034 0.204636808197387 0.00354000000000002
0.00356 0.167411916125802 -0.10933397451256 1.30590486480468 -0.0028046850231415 0.196129270022825 0.00354999999999996
0.00357 0.403820864541379 -0.375470821275621 1.37729034701492 -0.000486387672922693 0.166013113205429 0.00356000000000005
0.00358 0.292860227859572 -0.13659940087653 1.19134202160661 0.0098926177942972 0.193074820575532 0.00357
0.00359 0.314421345320287 -0.102655937960649 1.32745193833079 0.00286896004608303 0.191731093823526 0.00357999999999994
0.0036 0.482960598130638 -0.0688687461490323 1.27196878426066 0.0124530433161724 0.191973102953017 0.00359000000000003
0.00361 0.397526007942102 0.0395190883211257 1.3069707905775 0.00831891773686476 0.215154812619261 0.00359999999999998
0.00362 0.323536168160911 -0.0154195759746862 1.23157324665411 0.00947660722942496 0.189450377618526 0.00361000000000007
0.00363 0.369772566159105 -0.0162207234542817 1.34534194560911 0.00842211118864588 0.197438065949979 0.00362000000000001
0.00364 0.299733397429117 -0.00416888875639426 1.37801683452304 0.000145767472700657 0.174701276590605 0.00362999999999996
0.00365 0.337574192442001 -0.160421632196778 1.24316182146536 0.0147682371487374 0.195534132763984 0.00364000000000005
0.00366 0.223924148636522 -0.00128813901647593 1.38001337752691 0.00540243551986694 0.218257063822931 0.00364999999999999
0.00367 0.347176061227037 0.112815192702493 1.26923919133426 0.0113891083443529 0.185594741930019 0.00365999999999994
0.00368 0.440849987805742 -0.0337689846866085 1.30618279298109 0.00776548434635142 0.201354363217072 0.00367000000000003
0.00369 0.375484632395524 -0.155445746115472 1.2962598359252 0.00481437629037869 0.185749166167454 0.00367999999999997
0.0037 0.370978659001014 -0.00461054498648795 1.34288714180392 0.00536709520016981 0.208424999787516 0.00369000000000006
0.00371 0.256476791398051 -0.18894162024664 1.24135821044903 0.00350470021954038 0.202871032198247 0.00370000000000001
0.00372 0.22561337473326 0.0135461940252492 1.2972287386058 0.00825975446346219 0.207547142187944 0.00370999999999995
0.00373 0.274002781014913 -0.234367002889778 1.37524116568087 0.00014189088760849 0.179912176293533 0.00372000000000004
0.00374 0.315740570389172 -0.0566525899253182 1.35978523890096 0.00736947647954048 0.204567108318023 0.00372999999999999
0.00375 0.460630368066487 0.00489730720239867 1.43904450955943 0.0183924205902444 0.224386781426543 0.00373999999999994
0.00376 0.333819707855041 -0.0189633358675961 1.36314562731493 0.0118629573476233 0.212494877432507 0.00375000000000002
0.00377 0.345017648858326 -0.159822412573471 1.2995065141116 0.007103521937085 0.204456568339732 0.00375999999999997
0.00378 0.25716340275862 -0.0842412110120442 1.32349908531424 0.00461925251735222 0.199843563013942 0.00377000000000006
0.00379 0.457009342252538 0.003685373936943 1.38648355795386 0.0164471816531445 0.210024398036068 0.00378
0.0038 0.231823717621125 -0.135887753377197 1.34470672042481 -0.00320693554441214 0.192258841089523 0.00378999999999995
0.00381 0.213821446646263 -0.0359859398488868 1.2235467400801 0.00397456408499631 0.193056828989286 0.00380000000000004
0.00382 0.400858180767844 -0.114261477793726 1.416517845006 0.014066955227348 0.234067819856226 0.00380999999999999
0.00383 0.384546454469977 -0.119087672002339 1.46174295949033 0.00770418643843882 0.222749802266851 0.00382000000000007
0.00384 0.494959942431858 -0.0263735166066942 1.32302049554546 0.0124818714972109 0.194965416058905 0.00383000000000002
0.00385 0.202199267498998 -0.1000607156848 1.39781493453219 0.00894294738539097 0.192325482153368 0.00383999999999997
0.00386 0.52379540430418 -0.0187838779005452 1.38763710121706 0.0112938784989938 0.22620138790905 0.00385000000000005
0.00387 0.471935841462832 0.213237189977923 1.45406791825257 0.0190303462818975 0.213431039437925 0.00386
0.00388 0.331267452673656 -0.0716089318329399 1.42649520270786 0.00864540457503245 0.219945905678011 0.00386999999999995
0.00389 0.186647670045122 -0.142884400423846 1.43986464462853 0.00245081814177627 0.221867588960123 0.00388000000000004
0.0039 0.192644900108808 0.0347191925364253 1.28029842783837 0.00942113638992663 0.180417014554046 0.00388999999999998
0.00391 0.386012025998491 -0.178042419249264 1.31184633994197 0.00682743408062473 0.22506741801266 0.00390000000000007
0.00392 0.117870992158823 0.0751437811254664 1.44928362915016 0.00722425850529184 0.186927978350416 0.00391000000000002
0.00393 0.341157407212058 -0.26191892755923 1.38245772043738 0.00312477834268358 0.23679486359606 0.00391999999999996
0.00394 0.234096665683694 -0.107870036283093 1.51882213608241 0.00588999275631164 0.211443000761833 0.00393000000000005
0.00395 0.374190270263766 -0.211965683692244 1.41062691848576 0.00878515314943443 0.235541350874198 0.00394
0.00396 0.366277649713383 -0.0558220617635165 1.51163023373237 0.00498098396019532 0.206056042378426 0.00394999999999994
0.00397 0.223907235783133 -0.113614724791752 1.38190428611052 0.00530190106538014 0.207519131702396 0.00396000000000003
0.00398 0.376854220421027 -0.0677295901110931 1.41912918945273 0.0120742318213414 0.213996772680586 0.00396999999999998
0.00399 0.193956779659606 0.023620312223047 1.50475096115919 0.0102462563879993 0.205840320571852 0.00398000000000007
0.004 0.482177760722635 -0.150545696212287 1.48080081604715 0.0104889051837672 0.211038554095872 0.00399000000000001
0.00401 0.245283485128091 -0.0700413636818405 1.43948423985768 0.00563442117347327 0.196859984518633 0.00399999999999996
0.00402 0.301291299431133 -0.0952905588082819 1.33769955375079 0.00759965731749365 0.207656534432162 0.00401000000000005
0.00403 0.244189179619206 0.0778886895552593 1.46395737046956 0.0110280393223557 0.218900782821689 0.00401999999999999
0.00404 0.331795012853424 -0.106138088577833 1.38215226002207 0.00526016041387376 0.198122905538387 0.00402999999999994
0.00405 0.203644492163588 -0.164022835997128 1.41531736859842 0.00133035419441723 0.201140884974695 0.00404000000000003
0.00406 0.22418945374661 -0.076601346036438 1.45228773025038 0.00537612219352065 0.231491173912362 0.00404999999999997
0.00407 0.480415387440692 -0.100723900936328 1.49602112586251 0.00867474235304535 0.215171473949228 0.00406000000000006
0.00408 0.50989569386578 0.0331703540670532 1.36611063398295 0.0168831386927201 0.198911029743335 0.00407000000000001
0.00409 0.225683241342918 -0.0602359223206973 1.46007480555294 0.0017176790333976 0.241609966612484 0.00407999999999996
0.0041 0.407214916891078 -0.113300155376102 1.46449798449602 0.012920113851996 0.223498561793605 0.00409000000000004
0.00411 0.208221136697091 -0.0449627583698321 1.41317782908854 0.00275680192416884 0.20240237141798 0.00409999999999999
0.00412 0.378988478994321 0.0650216944235852 1.48455878867779 0.0134136413487558 0.208443604556109 0.00410999999999994
0.00413 0.363949913400419 -0.125159761308207 1.4095330147771 0.0102875626099685 0.207039102539181 0.00412000000000002
0.00414 0.319182344380754 -0.034407612303778 1.45648112674768 0.00797538405355266 0.220157665988244 0.00412999999999997
0.00415 0.411753421515712 0.0130205036878915 1.43128514132118 0.0159250760469709 0.214972877938811 0.00414000000000006
0.00416 0.418762127977361 -0.0140052542425436 1.48957497431655 0.00910427242842675 0.226508728087598 0.00415000000000001
0.00417 0.188672443468881 -0.0889686969183575 1.54780318678671 0.000514613861496701 0.222614532683208 0.00415999999999995
0.00418 0.322652364790309 -0.028221374082793 1.39749114283802 0.0108465595335422 0.236008848865481 0.00417000000000004
0.00419 0.477061211417621 -0.222259023399843 1.41360335267742 0.00311808877697523 0.205458679335674 0.00417999999999999
0.0042 0.21469102689692 -0.0606977099000149 1.53984349128085 -0.00443340632777286 0.250708480044223 0.00419000000000007
0.00421 0.339573248023523 0.00646300262841528 1.53008252397268 0.0159964519253503 0.222154504231098 0.00420000000000002
0.00422 0.297751448704078 -0.00400098355814706 1.55888314502809 0.00801967236561708 0.202401932064745 0.00420999999999997
0.00423 0.0447700039199388 -0.114480755483733 1.49227402217873 -0.00159693074642276 0.246888693558465 0.00422000000000006
0.00424 0.445140454558395 -0.168763236537954 1.66752337498818 0.00645495913517452 0.233355014831005 0.00423
0.00425 0.246160600716299 -0.0927645772582778 1.42863127559364 0.00230909978260798 0.227993032129183 0.00423999999999995
0.00426 0.343606939434387 -0.0657134156595891 1.57774029025125 0.00589609565158559 0.23528634599711 0.00425000000000004
0.00427 0.356099656176073 -0.200237908001296 1.54826185021003 -0.000958192152381506 0.234593206116924 0.00425999999999998
0.00428 0.293900581800382 0.0758574560126458 1.42516588733007 0.0124462482708184 0.232101228095142 0.00427000000000007
0.00429 0.334965241309676 -0.0577507568356182 1.61553669690665 0.00435449424387338 0.23073417102229 0.00428000000000002
0.0043 0.33670758787234 0.106138028150064 1.5963340603289 0.0144167784477262 0.234455803513635 0.00428999999999996
0.00431 0.431362004645768 -0.0572016026421141 1.51701324666657 0.0100361066374266 0.237140082048711 0.00430000000000005
0.00432 0.465789362229246 0.0614143935686579 1.61307756706075 0.0101866421314823 0.246346997899213 0.00431
0.00433 0.629228805534694 0.0901612301408559 1.57126771306888 0.025498965696131 0.207246658563927 0.00431999999999994
0.00434 0.172959340872188 -0.14883012207093 1.61291841904211 -0.00174730871477377 0.249108454649531 0.00433000000000003
0.00435 0.535555519667696 -0.0473102331514195 1.74329466899632 0.00682553596542265 0.24065918603222 0.00433999999999998
0.00436 0.497392828801508 0.0293281903559672 1.5802788109487 0.0192436755428851 0.212378004623128 0.00435000000000007
0.00437 0.159800965747632 -0.0297075081894214 1.4963746404862 0.00792032965958664 0.223543405707512 0.00436000000000001
0.00438 0.503557431078992 -0.18146799741431 1.49763088389442 0.00976154045438015 0.244670324836709 0.00436999999999996
0.00439 0.351864863297832 0.0698763571002748 1.61868146726181 0.013600938014505 0.2265161543734 0.00438000000000005
0.0044 0.378963038246403 0.0323474012364432 1.47740118412049 0.0133985430884201 0.22146024028012 0.00438999999999999
0.00441 0.554197322764443 0.157382780709137 1.53942499465828 0.0175957040662037 0.230643019110983 0.00439999999999994
0.00442 0.279962652227627 0.0666915794266531 1.54598666305782 0.0146914989513002 0.240058096050046 0.00441000000000003
0.00443 0.410593467095434 0.0423260620274731 1.47243094032011 0.0111940803974395 0.227353828754475 0.00441999999999998
0.00444 0.295757712131346 0.117689521162714 1.59590432211496 0.0117513556902181 0.225833058868877 0.00443000000000006
0.00445 0.26470218824831 -0.0945202598134154 1.72408899647089 0.00249939288690982 0.25461299412261 0.00444000000000001
0.00446 0.308502652246216 -0.166333033222205 1.59255262854657 0.00198694082937888 0.23666836281899 0.00444999999999996
0.00447 0.332464341994962 0.0987090697057612 1.57892124591716 0.00941393223160077 0.238006144424898 0.00446000000000004
0.00448 0.373775610135763 0.115255681767334 1.68004332407372 0.0160840512029185 0.246912086470946 0.00446999999999999
0.00449 0.336102576939473 -0.104635547695925 1.65302984571598 0.000409218736158797 0.245399875966426 0.00447999999999994
0.0045 0.234435451328926 -0.0784908943278833 1.61365587102247 0.00173250072626666 0.24247732284239 0.00449000000000003
0.00451 0.229374971027003 -0.116253616069601 1.52976979419766 0.0042315994508011 0.24085424475116 0.00449999999999997
0.00452 0.3062878524628 -0.0381063823787144 1.56032361418085 0.0079191980033097 0.243060895824567 0.00451000000000006
0.00453 0.401637309282846 0.0781594168049634 1.58406683137417 0.0185049386193113 0.221015878717135 0.00452000000000001
0.00454 0.41622538636444 -0.0574614039161571 1.64341145247037 0.00654604625687388 0.251556878605335 0.00452999999999995
0.00455 0.433837303085627 0.0309349351216569 1.5332203687478 0.0143645891644507 0.251714527720877 0.00454000000000004
0.00456 0.429933475099946 -0.0694530525095173 1.72164462533873 0.0103427708471094 0.231340132641534 0.00454999999999999
0.00457 0.300604434008223 -0.1151678732686 1.6212547965882 0.00923910738891804 0.265328586289602 0.00456000000000008
0.00458 0.520901146361016 -0.090719017844183 1.63248412431413 0.00676473735404558 0.25204037503629 0.00457000000000002
0.00459 0.288140248876846 -0.027624966675912 1.64443895812578 -0.00179791684054634 0.252990580754167 0.00457999999999997
0.0046 0.430148989399335 -0.15967057977526 1.54660723034302 0.0121233328826158 0.234318708360539 0.00459000000000006
0.00461 0.400369277684291 -0.0114613579975442 1.55891966333541 0.00953759193796535 0.24745608040286 0.0046
0.00462 0.29329696890223 0.127327944629136 1.63665234212409 0.012754637581746 0.248422857118891 0.00460999999999995
0.00463 0.50473372853067 -0.0402378956671491 1.61977487290912 0.0123515444623733 0.23782261022452 0.00462000000000004
0.00464 0.275423684229438 -0.0152714933452927 1.62336714407678 0.0106868783822479 0.243851216667789 0.00462999999999998
0.00465 0.320013788077438 -0.00896716558660496 1.71439364806745 0.00759524700062622 0.24629473237781 0.00464000000000007
0.00466 0.294291720786342 -0.0868697812290376 1.61822317992639 0.0091227045582764 0.244287291067554 0.00465000000000002
0.00467 0.322401303541439 0.168875965906713 1.66927539477612 0.0140060257098604 0.250663808858508 0.00465999999999996
0.00468 0.424646274843261 -0.0374285269931184 1.72036266858394 0.00708568663388339 0.236616792446969 0.00467000000000005
0.00469 0.281736179391044 0.179658706996884 1.57046761856254 0.0162386931655319 0.239834904813418 0.00468
0.0047 0.253758110130292 -0.138905211930757 1.74419640687857 0.00326504474032549 0.24358942390349 0.00468999999999995
0.00471 0.305830573908229 -0.121800341328902 1.69789415957482 0.0070067993761613 0.240153589064023 0.00470000000000003
0.00472 0.21327706199379 0.083869124614886 1.6896707144077 0.00902289674993155 0.245020744177453 0.00470999999999998
0.00473 0.450970254809732 -0.0851778012476015 1.67928058169166 0.00796816202099554 0.245680239957068 0.00472000000000007
0.00474 0.507751099024323 0.02203509539298 1.6415330557709 0.0116326178968848 0.24916000734353 0.00473000000000001
0.00475 0.247268910413819 0.0860168810784535 1.6925941056333 0.0150545726385459 0.24496297696021 0.00473999999999996
0.00476 0.574849957150891 -0.125582776506684 1.64766711737754 0.0106793626808491 0.270289657669081 0.00475000000000005
0.00477 0.245090013388699 0.0780745124628978 1.6557846629825 0.00653957151282613 0.253415757312236 0.00476
0.00478 0.268045272018168 0.0528796973520388 1.73426748099114 0.0121303687342981 0.242670505863885 0.00476999999999994
0.00479 0.442137786039645 0.0222669410109419 1.628716423495 0.0172615832137624 0.250500597233904 0.00478000000000003
0.0048 0.330134814774841 0.0638755061629266 1.70559559513236 0.00457338416766692 0.251060707647212 0.00478999999999998
0.00481 0.370206296219217 0.047352556253816 1.61504315435253 0.00590619694992592 0.236123657299429 0.00480000000000006
0.00482 0.314957447454491 -0.0231494021871521 1.72996542927048 0.00865534686731617 0.253056004139218 0.00481000000000001
0.00483 0.36689444893925 -0.101011881353442 1.8465516497218 0.00499805453373812 0.268421641071124 0.00481999999999996
0.00484 0.298280152662167 -0.0525883322817026 1.76149559441716 0.0131349027227112 0.258847343696284 0.00483000000000005
0.00485 0.243659414466476 -0.0340780683665636 1.6290883946392 0.00573607898741263 0.268753013590376 0.00483999999999999
0.00486 0.546572918663029 -0.179118040195614 1.69062661098015 0.00291740708418152 0.249545265516619 0.00484999999999994
0.00487 0.216777167651542 0.0673811364413589 1.79292692224688 0.0130517338838422 0.255014005768377 0.00486000000000003
0.00488 0.358156001876748 -0.140224279443143 1.68755718844157 0.00554572828221678 0.256681640669816 0.00486999999999997
0.00489 0.374738509709381 0.0522593271769463 1.7523256926039 0.00668793376660585 0.268142626172215 0.00488000000000006
0.0049 0.235171931110077 0.0616759857609332 1.73448868819444 0.00810026760334149 0.246701868830139 0.00489000000000001
0.00491 0.473590287354065 -0.169383148449472 1.70809928027603 0.00471918136502105 0.26529104187452 0.00489999999999995
0.00492 0.487590402748848 0.0526904496513927 1.70301923791532 0.0172206167752728 0.258515162197337 0.00491000000000004
0.00493 0.21408551574636 0.111758692524942 1.69128027803078 0.00840957904297367 0.251098710178237 0.00491999999999999
0.00494 0.448318396832593 0.141114794608787 1.787178919433 0.0151468695226671 0.257063617054527 0.00492999999999993
0.00495 0.365620724187554 0.0510113612455936 1.67306029272413 0.00634981916134118 0.23804738532679 0.00494000000000002
0.00496 0.219197710496034 -0.0191008151699716 1.79335861580558 0.00363554861603876 0.26814389837833 0.00494999999999997
0.00497 0.415193228488293 -0.035083206240551 1.71611272588838 0.00373592935606673 0.253024774772941 0.00496000000000006
0.00498 0.379228675691669 0.0690052498587876 1.7355436326554 0.0180763412648366 0.272696627672483 0.00497
0.00499 0.295926938595386 -0.0869462229710001 1.71665393243939 0.00464595038065798 0.256676000018876 0.00497999999999995
0.005 0.349646562225516 -0.151011658862846 1.85104379680038 -0.000296135645429764 0.246321812478285 0.00499000000000004
0.00501 0.34602702345474 0.00475678507072145 1.7869571034109 0.00164093116253031 0.25628330056911 0.00499999999999998
0.00502 0.386231287755912 -0.067041697230443 1.78153809308391 0.0138578519308723 0.264520235754731 0.00501000000000007
0.00503 0.249617085051791 -0.169960450776981 1.73761339499096 0.00641797342335768 0.244726842939119 0.00502000000000002
0.00504 0.270072018994258 -0.0593080646756714 1.70066805108577 0.00688035520147826 0.268747848709317 0.00502999999999997
0.00505 0.477791794951934 0.0697388398001737 1.79415686471811 0.0174278555782842 0.268275928014833 0.00504000000000005
0.00506 0.439335482196013 -0.0221035077193095 1.69176075988933 0.0114491873695057 0.25536700801026 0.00505
0.00507 0.393890170301712 -0.124872198282817 1.78104395223331 0.0123260684371114 0.26195370146484 0.00505999999999995
0.00508 0.367822551651528 0.0392048771879571 1.85248602847637 0.0227099533494131 0.274089141200809 0.00507000000000003
0.00509 0.340888876009713 -0.0802552281829621 1.84705423310984 0.00502491214471857 0.256122325691191 0.00507999999999998
0.0051 0.269336985452107 -0.0645257454676607 1.76548804534375 0.0124902222188531 0.25653648133346 0.00509000000000007
0.00511 0.338313646377443 0.207429771489905 1.7507258358893 0.0163354963572416 0.252562729198972 0.00510000000000002
0.00512 0.55645390713161 0.184651889764341 1.73846180839384 0.0246620321305524 0.253160588060915 0.00510999999999996
0.00513 0.447247874901306 -0.0921242249908518 1.89469594832958 0.0116624387892902 0.288622735124133 0.00512000000000005
0.00514 0.580523724039191 -0.00881229454751708 1.7317436094428 0.0164982736609275 0.276767378773101 0.00513
0.00515 0.423322720577557 0.151276370395592 1.90820228493754 0.0157356170229806 0.259223334872015 0.00513999999999994
0.00516 0.642600049467608 0.0297007565449112 1.76105005109412 0.0165722625604676 0.264713858524904 0.00515000000000003
0.00517 0.404825594016748 0.121379158034291 1.81835658021639 0.00932775470517056 0.260394399586199 0.00515999999999998
0.00518 0.314060347933524 -0.0386301406348079 1.88957952026657 0.00758628860077483 0.290934536265702 0.00517000000000007
0.00519 0.271275598981521 -0.100723418812288 1.83191855469456 0.00437217303813078 0.267402365231941 0.00518000000000001
0.0052 0.5810983290543 0.0652701499721118 1.74276827843754 0.0108277439097658 0.268797945760182 0.00518999999999996
0.00521 0.579326207879992 0.1717820603084 1.8497010040213 0.0253735736467343 0.277040492541923 0.00520000000000005
0.00522 0.390352541182295 -0.0657759461881474 1.85617129877697 0.0159227514279305 0.28411009620904 0.00520999999999999
0.00523 0.428831450281529 -0.0756815200600329 1.81688735791752 0.00614134270879205 0.281333249077308 0.00521999999999994
0.00524 0.405781992723903 0.0202753878701968 1.86180716812126 0.014214340123942 0.28598885825095 0.00523000000000003
0.00525 0.449387258276578 0.148161757326546 1.82513471751554 0.0123684214510448 0.279894985664377 0.00523999999999997
0.00526 0.37126320159543 -0.0641787294785428 1.92482043834525 0.00798277366340522 0.281630256880081 0.00525000000000006
0.00527 0.370450732129399 0.0181232507484513 1.83894787783372 0.0136752652729191 0.285258209130006 0.00526000000000001
0.00528 0.402214903551141 0.0365396601001794 1.84775442769179 0.0141707780821028 0.27979863197758 0.00526999999999995
0.00529 0.452549727821936 0.0562692294254153 1.86299829256797 0.0110759608429355 0.262597801903832 0.00528000000000004
0.0053 0.251158757463632 0.0912840650286353 1.77859159920952 0.00741018113070745 0.288783684877067 0.00528999999999999
0.00531 0.407173721731727 0.11560935001594 1.89963677280157 0.0146112349514813 0.273102444844858 0.00530000000000008
0.00532 0.20737160335629 0.0403673272488676 1.8365676968874 0.00536585182108876 0.253592443712141 0.00531000000000002
0.00533 0.441985200027674 -0.00765437367740626 1.93732013316391 0.00713315604620072 0.295185167736976 0.00531999999999997
0.00534 0.288994913789479 -0.112364290879117 1.94698985762124 0.00664996274959726 0.274725378985802 0.00533000000000006
0.00535 0.314515137257115 0.0406126769964402 1.87596787636851 0.00980678940744438 0.272847224254069 0.00534
0.00536 0.383774834618966 -0.0275111596522914 1.91097582495972 0.0144225499301149 0.29555282338369 0.00534999999999995
0.00537 0.324644992660934 -0.063017452856226 1.98472281089711 0.00975129577981545 0.287003446562872 0.00536000000000004
0.00538 0.451358369269606 -0.219875091404449 1.88446328421831 0.00341885800852307 0.281937171521504 0.00536999999999999
0.00539 0.356031010497601 0.0914806007118386 1.91076270820258 0.00911400787371464 0.295711281688137 0.00538000000000007
0.0054 0.453633345009781 0.128001372049672 1.84627895996654 0.019637439086568 0.293853737344407 0.00539000000000002
0.00541 0.511682745704916 -0.008643135789541 1.8793236941044 0.0174731883884005 0.276358213560729 0.00539999999999997
0.00542 0.352191120907847 0.0650087043628795 1.77896286072785 0.00719246593012599 0.275329648301378 0.00541000000000005
0.00543 0.436060857888875 0.0060174737381211 2.05880389002004 0.0174769631804713 0.314075151450152 0.00542
0.00544 0.434816424619681 0.123847932316737 1.78483135677516 0.0108904911718701 0.284761985202634 0.00542999999999995
0.00545 0.54175344639742 0.0165096884820852 1.83680648075924 0.0177695848964471 0.296492083903409 0.00544000000000004
0.00546 0.422947570959295 0.0384550028969848 1.89148579824073 0.0149550192961159 0.25271139541762 0.00544999999999998
0.00547 0.290457066462739 0.074575110507795 1.88210590406372 0.0116448140912911 0.280599112211711 0.00546000000000007
0.00548 0.486199532876718 0.17185872837832 1.9343911143339 0.0211650631935509 0.30521747977899 0.00547000000000002
0.00549 0.615517363615427 0.135707738288715 1.9154637536174 0.0176092906283262 0.280377523604078 0.00547999999999996
0.0055 0.275201916843833 0.129372200079188 1.93136276659032 0.013943929083684 0.274949709572664 0.00549000000000005
0.00551 0.541974214393307 -0.0350229746360053 1.99405381365052 0.020096858331256 0.287210688575549 0.0055
0.00552 0.443366169680522 0.105812762856022 1.9536126503238 0.0172389617952073 0.278706384620824 0.00550999999999994
0.00553 0.387481571052764 0.105214487370736 1.85406742863911 0.00776316390809868 0.29236505842469 0.00552000000000003
0.00554 0.326568245577569 0.0270177393099481 1.95015705438823 0.00959472000849903 0.304993436810845 0.00552999999999998
0.00555 0.424134840970347 -0.00487814221717773 1.99894684078261 0.0167529243908835 0.282225736237812 0.00554000000000007
0.00556 0.516218548629362 0.146475796613552 1.88144188182202 0.0166714226111512 0.284718700368436 0.00555000000000001
0.00557 0.387371205662144 0.0806264587474654 2.03194048652142 0.015829459568117 0.307867466442951 0.00555999999999996
0.00558 0.215790939375895 -0.11645396588542 2.07414051277527 0.00494873222675079 0.287970919624398 0.00557000000000005
0.00559 0.336417868148834 0.0343006950192753 2.02173884825819 0.0110179768358826 0.296267914130652 0.00557999999999999
0.0056 0.284373234232315 0.0723054586651309 1.98953406356338 0.00961336735177297 0.30675937262283 0.00558999999999994
0.00561 0.508181196984526 -0.163899116311039 1.99993180531539 0.0133300431967339 0.296057599846905 0.00560000000000003
0.00562 0.33972395508728 0.0661136288469217 2.00286563891079 0.00762677873061105 0.291765602870688 0.00560999999999997
0.00563 0.455170968815991 0.0379044971892458 2.01341698649595 0.014329079746964 0.296854150742735 0.00562000000000006
0.00564 0.402134849875211 0.0786691708412802 2.04217697645421 0.00504668755746686 0.302835883849178 0.00563000000000001
0.00565 0.40021608058968 -0.131388153878678 2.02982416618898 0.0088957975888776 0.295257444356469 0.00563999999999995
0.00566 0.335357640761132 0.0238042417103195 1.99064701270482 0.0159326673805506 0.300716187975929 0.00565000000000004
0.00567 0.480445294282338 0.0921770331136732 2.11369464704576 0.0119059060938488 0.31717290885363 0.00565999999999999
0.00568 0.355952053973227 0.110535800285167 1.97688807674952 0.0154076958495152 0.28616558241317 0.00566999999999994
0.00569 0.416648383742103 -0.0140514730993332 2.07152370755028 0.0134061458505857 0.316156391359802 0.00568000000000002
0.0057 0.313070926862684 0.136726557615757 2.09789051024321 0.0107167217658063 0.304533235262056 0.00568999999999997
0.00571 0.470904915242711 0.0752361279612504 1.95829174657243 0.013114824075832 0.302423331852301 0.00570000000000006
0.00572 0.505923929496611 -0.0583913641495931 1.9978165376775 0.0105615271775378 0.299766372454512 0.00571000000000001
0.00573 0.353274868633174 -0.0103482353889499 2.0199879998993 0.0126616595017938 0.2962362955151 0.00571999999999995
0.00574 0.600164577833399 0.132487227052879 1.98960404103215 0.0215401267729622 0.285249320563932 0.00573000000000004
0.00575 0.382287719641545 0.105236018224172 2.03611583554096 0.0133146164670614 0.319906520770155 0.00573999999999999
0.00576 0.301024203359218 -0.102319768779579 2.15221537351099 0.00130918854693074 0.31491903101374 0.00575000000000007
0.00577 0.465194640501667 -0.086284472770505 2.13940670925647 0.00885008225831945 0.30158553628389 0.00576000000000002
0.00578 0.241649191652513 -0.0300985484033547 2.04631200450698 0.00332801798247234 0.320128085282466 0.00576999999999997
0.00579 0.518484499350099 0.105898217063278 2.10011888070618 0.0193663217372713 0.296290955069038 0.00578000000000006
0.0058 0.252977503697655 0.0911206502212255 2.0050422768426 0.000616158760561017 0.290992174908738 0.00579
0.00581 0.373397108146728 0.00940812729517555 2.0053312179112 0.0131543205938297 0.302920415185296 0.00579999999999995
0.00582 0.395066712465263 -0.0281153585173536 2.08250314336861 0.00831820223448918 0.297276136361276 0.00581000000000004
0.00583 0.485603723408548 0.164078185740071 2.05799106802306 0.0154896521875201 0.320558430098085 0.00581999999999998
0.00584 0.463466426655878 -0.030667908680821 2.12381387000316 0.00920510285350718 0.314542729750657 0.00583000000000007
0.00585 0.344369889704788 0.0695928773675905 2.0277236267436 0.0157036971128226 0.299830197659758 0.00584000000000002
0.00586 0.420809899688674 0.10703559542315 2.10888415313805 0.0158549129499574 0.299925920613551 0.00584999999999996
0.00587 0.446713996556152 0.0639785291272735 2.11159590500341 0.0208978467717563 0.306450174143087 0.00586000000000005
0.00588 0.337825496518872 -0.00427490516385136 2.06865539042609 0.0111820677478388 0.326029453609092 0.00587
0.00589 0.464228470177433 0.032628330004401 2.15713917149055 0.0107366585590433 0.329757296994887 0.00587999999999994
0.0059 0.27787408893812 0.0955235881511204 2.0620179704099 0.0147264318101381 0.315584049447794 0.00589000000000003
0.00591 0.350174264137867 0.148359950723044 2.201411936046 0.0058880357595265 0.33680345641508 0.00589999999999998
0.00592 0.374249188074818 -0.0336485443943593 2.10765266496099 0.00825233930198002 0.29902291014498 0.00591000000000007
0.00593 0.481665668185659 -0.0802656508302704 1.99964471163646 0.0182038396784385 0.297770573074955 0.00592000000000001
0.00594 0.558253938718106 0.0461452811075786 2.15253317031982 0.0143408081156108 0.331737445547842 0.00592999999999996
0.00595 0.190769069411666 0.0357654104788802 2.15158487853628 0.00822645681423601 0.304381355920885 0.00594000000000005
0.00596 0.449929515772407 -0.0251154235892977 2.10092319037991 0.0122535050310668 0.324808354158838 0.00594999999999999
0.00597 0.493366960753225 -0.030137744568355 2.13985858087851 0.0120321334361293 0.309479124226611 0.00595999999999994
0.00598 0.375980369337475 0.128906976313457 1.97813081938288 0.0120800256332773 0.310172998668559 0.00597000000000003
0.00599 0.411108465794393 0.0863713876226125 2.09569766577232 0.0140888037487291 0.315910126306971 0.00597999999999997
0.006 0.34261141281572 -0.121084569516666 2.08861947286797 0.00552386993429947 0.291240684763756 0.00599000000000006
0.00601 0.413807983615593 0.0431460756667748 2.12455845500768 0.0143187943133999 0.324509082535777 0.00600000000000001
0.00602 0.387839920596413 0.0245083113927564 2.19068651534795 0.0126962294485245 0.308884926262968 0.00600999999999996
0.00603 0.392502436195288 0.114767342829923 2.13308342251734 0.0144650596978048 0.319690742647795 0.00602000000000004
0.00604 0.33150628816144 -0.112933491724176 2.0919119243111 0.0075534970906587 0.306835114188773 0.00602999999999999
0.00605 0.309843108033335 0.0957362916971719 2.16191148885822 0.0154670747507969 0.324843506548928 0.00603999999999994
0.00606 0.538499067341544 0.042817058701389 2.16073346294004 0.0154398448377 0.315507596351747 0.00605000000000002
0.00607 0.305731782694076 -0.0352937606560804 2.11840108065656 0.00473528858497286 0.329999671906712 0.00605999999999997
0.00608 0.505247396149927 -0.136770231553837 2.2642154127746 0.014935910885096 0.309640202299788 0.00607000000000006
0.00609 0.413592560897817 0.0635850776765308 2.11551590756112 0.008848631367497 0.310403302047594 0.00608000000000001
0.0061 0.286319554634923 0.0210965575246432 2.21851509724519 0.0102911958806265 0.343279671518969 0.00608999999999995
0.00611 0.260347973204306 0.0273644982635489 2.2360383040832 0.0147877539616902 0.3095603644626 0.00610000000000004
0.00612 0.332661675495823 -0.125560516341706 2.18598419864588 0.0103231784346812 0.319541376110985 0.00610999999999999
0.00613 0.539440618275508 0.154301181976492 2.22142673219829 0.0166570058458798 0.324193386189486 0.00612000000000008
0.00614 0.319441043838187 0.0183494117988512 2.16236087385265 0.0087985384987797 0.312330687440547 0.00613000000000002
0.00615 0.386987613033015 0.0889208861081883 2.22609710178533 0.0176556073845916 0.330855999741869 0.00613999999999997
0.00616 0.351193026102378 0.0886234909210328 2.1803201111169 0.0182098598169337 0.324793017502907 0.00615000000000006
0.00617 0.376028905823929 0.045464579066442 2.18255336476766 0.0104747707766874 0.318874735717251 0.00616
0.00618 0.351149185975867 -0.0082813378980565 2.13919595323219 0.00904160290302863 0.339166821274955 0.00616999999999995
0.00619 0.188889573275256 -0.108709918307962 2.20766044638917 0.00724365426833762 0.320548171100894 0.00618000000000004
0.0062 0.468330056154272 0.149213234757599 2.22507100791128 0.017715463808394 0.345515494793879 0.00618999999999998
0.00621 0.494842292797129 0.0361794271122808 2.25224034486266 0.00761347179892739 0.328115341056964 0.00620000000000007
0.00622 0.250300401067265 -0.129198652784995 2.35281818999093 0.00254998892804356 0.339928759706199 0.00621000000000002
0.00623 0.355052300262177 -0.0872921342367845 2.26131075208228 0.00842249200035871 0.317678625292351 0.00621999999999996
0.00624 0.442162578117951 0.0386687411982768 2.1899508475557 0.0148173027245522 0.318288529029952 0.00623000000000005
0.00625 0.404668872985924 0.0743767637977734 2.26483427370512 0.0181163924015099 0.351120254771651 0.00624
0.00626 0.367335232914571 0.0578794072395743 2.24099205238634 0.0134505677788437 0.315303371564081 0.00624999999999994
0.00627 0.253503843972601 0.0113363742516518 2.17869882794212 0.00204396523136565 0.335343996548962 0.00626000000000003
0.00628 0.465229864693696 0.0135568925645963 2.26734540772557 0.0118497219519982 0.34586631995395 0.00626999999999998
0.00629 0.479613865443818 -0.0232067885070438 2.3347266059041 0.0137548971799988 0.340236491913704 0.00628000000000007
0.0063 0.1313570094251 -0.125913021264884 2.20556000693029 -0.0004218475836682 0.338287873073079 0.00629000000000001
0.00631 0.459658113905491 -0.0326303615868533 2.2128223472199 0.0137063474659171 0.323960246448788 0.00629999999999996
0.00632 0.247808888846951 0.0600417620963481 2.28805816301599 0.00453568341511221 0.325377558497502 0.00631000000000005
0.00633 0.322786385553967 0.00692327087736331 2.29698793005995 0.00608410539524241 0.330630487905563 0.00631999999999999
0.00634 0.299246821412886 -0.0901067520191209 2.08608675116709 0.00839322109745619 0.334572898707864 0.00632999999999994
0.00635 0.303125097823416 -0.00894897121274862 2.22535435335374 0.0090313710082209 0.339797693221851 0.00634000000000003
0.00636 0.462712869696618 0.0165400103931432 2.35729245462157 0.0159736915530329 0.322949206544664 0.00634999999999998
0.00637 0.434181273384354 -0.0730682325906085 2.1996803930208 0.0138976196331798 0.323500660717824 0.00636000000000006
0.00638 0.207987289679767 -0.168255256071195 2.34547240857761 -0.000714240592792299 0.330604545118948 0.00637000000000001
0.00639 0.315000331932315 0.124037841926229 2.27612660184088 0.0189785317768986 0.321379707768934 0.00637999999999996
0.0064 0.369526181346318 0.0253542821598812 2.2211874381468 0.0127704664082529 0.346838564669668 0.00639000000000004
0.00641 0.3440548548185 0.018487422301891 2.31122364723164 0.00966010079128269 0.333561194648915 0.00639999999999999
0.00642 0.34313127846483 0.0663652842891959 2.27412105502404 0.00851552087870127 0.345389364419202 0.00640999999999994
0.00643 0.468730333494138 0.0751422768437762 2.29445359725492 0.0230195752099761 0.328975559821064 0.00642000000000003
0.00644 0.297600798446992 -0.0854970299046163 2.24735274474501 0.00684763201676832 0.335269287419275 0.00642999999999997
0.00645 0.234112583092384 0.0204289619500342 2.24921989122682 0.00174804172673823 0.346887695097367 0.00644000000000006
0.00646 0.308111385704634 -0.0637066305002934 2.36516964427238 0.0115923704920396 0.358287757755353 0.00645000000000001
0.00647 0.369328044968239 0.115105352284567 2.34098169872892 0.01481496894716 0.321581266416298 0.00645999999999995
0.00648 0.378435419536903 0.338241121432033 2.17727259508619 0.0132451660769386 0.335833639097666 0.00647000000000004
0.00649 0.407615186373207 -0.0582265038192987 2.28567883630918 0.010394166225758 0.312536389412658 0.00647999999999999
0.0065 0.51133000969971 0.158887031050018 2.19378233094473 0.0212040960558708 0.337230801832597 0.00649000000000008
0.00651 0.398198341012763 -0.0327323192090255 2.35260800351213 0.00686086164795367 0.365249060593935 0.00650000000000002
0.00652 0.382409478923947 -0.0382819934793036 2.30525507269387 0.0068220543105565 0.31381978114294 0.00650999999999997
0.00653 0.529054351309295 0.181785060996378 2.30051796798584 0.0219177134133398 0.348131617588776 0.00652000000000006
0.00654 0.413815755736281 0.110364384553823 2.35791204281609 0.0134555863454212 0.336325249758001 0.00653
0.00655 0.385715985197657 0.111592814076552 2.32916450089586 0.0189514570676593 0.33867006344104 0.00653999999999995
0.00656 0.552672358094729 0.180488771137977 2.20497873084285 0.018973443211666 0.342491522776111 0.00655000000000004
0.00657 0.410984764404507 0.163918497485145 2.35626389071095 0.0097392415993419 0.348829136425383 0.00655999999999998
0.00658 0.257867740797146 -0.0388854903273391 2.37635848246438 0.00951735047673787 0.336806776392172 0.00657000000000007
0.00659 0.527191044087146 0.0127062726937152 2.30970122406175 0.0130802304008258 0.3531384187693 0.00658000000000002
0.0066 0.354977947259299 0.219510396557764 2.29054313588619 0.0185562792056426 0.326832471285791 0.00658999999999996
0.00661 0.426491481593425 -0.0187245383210754 2.36944556430975 0.0129258599638591 0.341332757849025 0.00660000000000005
0.00662 0.510132725878118 -0.0996973088725718 2.36374682790927 0.00794388949745679 0.363194130289928 0.00661
0.00663 0.417702670824326 0.232810557072309 2.36826749503932 0.0140963574428469 0.333042741509585 0.00661999999999995
0.00664 0.565839819166128 0.0137593511158934 2.28896831677801 0.0167251021748291 0.352478899575905 0.00663000000000003
0.00665 0.454424252599131 0.180315242170532 2.44902038432771 0.0197335534805977 0.363615511245517 0.00663999999999998
0.00666 0.354285768261713 -0.0664323885484716 2.42177907213352 0.0029199613313919 0.34536508463726 0.00665000000000007
0.00667 0.447191622578205 -0.0879902961629025 2.32517733455581 0.00648706638706889 0.328483443060152 0.00666000000000001
0.00668 0.259474995411963 0.0649520691527352 2.37830363866589 0.014609422093042 0.341615329271596 0.00666999999999996
0.00669 0.511703240571238 0.00608505009125497 2.34937024833822 0.0241692132106185 0.35924061062271 0.00668000000000005
0.0067 0.367218513070932 0.143227572946061 2.36934543595127 0.0150093956997328 0.355782571367016 0.00669
0.00671 0.416852084654788 0.164418010250135 2.40155919480138 0.0155313058055404 0.362660323958411 0.00669999999999994
0.00672 0.442862453769017 -0.058765883434533 2.48008859963158 0.0144131793099626 0.339610191361856 0.00671000000000003
0.00673 0.331986345849898 -0.0470083580408759 2.41155720012561 0.00366043714922956 0.350876011946747 0.00671999999999998
0.00674 0.527036161491768 0.101145556019944 2.41376424551117 0.0218807098865113 0.360962881407012 0.00673000000000006
0.00675 0.298680568649227 0.0045830800552017 2.41691569771237 0.0125374596084501 0.353177565640889 0.00674000000000001
0.00676 0.484333667064735 0.0565692157591377 2.4259463104199 0.0105779464056627 0.357467452559335 0.00674999999999996
0.00677 0.396167474815808 -0.0258793842397896 2.40185898272749 0.0103893004408732 0.343538855644048 0.00676000000000005
0.00678 0.209165284433771 0.0961727665279651 2.4869561994709 0.0103895262533767 0.370356736914934 0.00676999999999999
0.00679 0.449275322409153 0.119772412602 2.43135987625761 0.0256065336617748 0.349051386629977 0.00677999999999994
0.0068 0.312038283784569 0.0639254232127235 2.3949786751076 0.00511173726970909 0.347502483635665 0.00679000000000003
0.00681 0.255876500668466 0.0969434282289839 2.40300499213403 0.0028097452521358 0.345621397004579 0.00679999999999997
0.00682 0.628076627282652 0.0373125217097021 2.43487347493206 0.0169508325625451 0.335934723993162 0.00681000000000006
0.00683 0.41936201901619 0.206034482802882 2.37842470622039 0.016094665789556 0.350095796422277 0.00682000000000001
0.00684 0.31627095020544 -0.0123733240030275 2.36929604670349 0.0150679379677507 0.339331625684733 0.00682999999999995
0.00685 0.562761636424457 0.0598369412292721 2.3211900846547 0.00801851502900461 0.36256395186306 0.00684000000000004
0.00686 0.397737996091536 -0.122028162514527 2.45011183370215 0.00583680377259495 0.372230590472563 0.00684999999999999
0.00687 0.490592588294584 0.0509570350143376 2.39376449951109 0.0203960943857252 0.333766203150132 0.00686000000000008
0.00688 0.71186781889236 0.05499716741653 2.32858453109969 0.0206981040419245 0.366225694824677 0.00687000000000002
0.00689 0.472571298951408 0.0883847129520595 2.54454953606595 0.0152035466798258 0.358402551844275 0.00687999999999997
0.0069 0.400999351511718 0.0607194330502473 2.32555046211586 0.0132823220061499 0.345366379082809 0.00689000000000006
0.00691 0.515715554104937 0.00404299670541657 2.48129618570484 0.0121901305459779 0.380584355372213 0.0069
0.00692 0.476391988407318 0.0942794956004012 2.47165521163668 0.013866519187486 0.353013253558342 0.00690999999999995
0.00693 0.443018353830383 0.113157733195214 2.31269405163284 0.0204892825507374 0.352159325466893 0.00692000000000004
0.00694 0.297641319385688 -0.0173613620260126 2.57146237330488 0.00623442480692141 0.373981680419042 0.00692999999999998
0.00695 0.454036774692134 0.181832637562976 2.44254140856751 0.018790396684474 0.375231707419048 0.00694000000000007
0.00696 0.29301368903762 0.160684398788724 2.5086113844261 0.0169598225290281 0.373204075517871 0.00695000000000002
0.00697 0.462018556176857 0.0936356238988243 2.47086142005418 0.00947006368778203 0.368091998272112 0.00695999999999997
0.00698 0.4252180140406 0.212128648876455 2.45006045915053 0.0254139541749625 0.369969755373435 0.00697000000000005
0.00699 0.348056396236222 0.0774111184688884 2.38949725615087 0.0157039017409118 0.348182935895859 0.00698
0.007 0.46396359231069 0.117295242856809 2.41689945865064 0.0204017628928782 0.37914773001129 0.00698999999999995
0.00701 0.49505752064017 0.0234719708169334 2.56813811097326 0.00956057551750917 0.370307622959095 0.00700000000000003
0.00702 0.367251767936787 0.0848257173024045 2.4415734970441 0.0155557935796474 0.325761923727883 0.00700999999999998
0.00703 0.438203657354719 0.0561240343618583 2.44836319897634 0.016795021575022 0.363923736622758 0.00702000000000007
0.00704 0.487630970077909 0.0396235245284645 2.51990656684686 0.00355776267239751 0.375305796346935 0.00703000000000002
0.00705 0.390196518085696 0.0923662441478219 2.44486639585347 0.0142235250443798 0.349130953794232 0.00703999999999996
0.00706 0.510605593134357 -0.059688522151419 2.46589044966068 0.0101991203817399 0.357572128205951 0.00705000000000005
0.00707 0.326968132554014 0.094904739472672 2.39828532334137 0.01187656594379 0.37471847572927 0.00706
0.00708 0.53045711980197 0.00458665770622096 2.52251060086567 0.0241327140812889 0.371118572519599 0.00706999999999994
0.00709 0.384395632645187 0.00988604577974354 2.54470887467985 0.00796475784206679 0.373287044823012 0.00708000000000003
0.0071 0.468112188182781 0.0917753308961504 2.38693291006569 0.0204731804524652 0.364417754371304 0.00708999999999998
0.00711 0.449568459515698 0.0779321900476745 2.58949033499134 0.0192302304134867 0.378404409826749 0.00710000000000007
0.00712 0.26543426631671 0.0720846824633068 2.54044513062336 0.0134745280991079 0.357165189824817 0.00711000000000001
0.00713 0.29464845232923 -0.0265768923644168 2.56798661686319 0.0070276226779242 0.392858506680851 0.00711999999999996
0.00714 0.549429898451165 0.072789261727101 2.50666486297394 0.0157443769116153 0.363504599562337 0.00713000000000005
0.00715 0.610462635351092 0.0548160738733179 2.54639588436947 0.0225381951385501 0.386303845305308 0.00713999999999999
0.00716 0.420479860755878 0.12884394017568 2.4880068632375 0.0135486945968884 0.37705843848506 0.00714999999999994
0.00717 0.501009023789074 0.104395272481178 2.44014493367746 0.0102233901826027 0.362659756182217 0.00716000000000003
0.00718 0.261617091138098 0.0239740327565796 2.512988004356 0.00690577055476681 0.375432918058421 0.00716999999999997
0.00719 0.48865334251611 0.100950637809074 2.56564565809825 0.0179007138251941 0.361550333179633 0.00718000000000006
0.0072 0.444042594966863 0.17482341083293 2.57701314177086 0.0096835450538252 0.372050221180781 0.00719000000000001
0.00721 0.3192005316563 0.0372333805161795 2.60536597011757 0.0123316645341913 0.398748989454223 0.00719999999999995
0.00722 0.541761483842879 0.0358261994143913 2.58247399761114 0.0194580953580015 0.378284708733655 0.00721000000000004
0.00723 0.328753789450099 0.0534378391544072 2.62627929901906 0.0156590773459661 0.3684354160472 0.00721999999999999
0.00724 0.34764517717424 0.00865737259249478 2.52149850438812 0.0096156949772893 0.365242828955844 0.00723000000000008
0.00725 0.642388376501595 0.123798584763007 2.57256299525172 0.0228501317189125 0.388689898799109 0.00724000000000002
0.00726 0.392763623452264 -0.0303755456627281 2.65432140053471 0.0141022937764431 0.383548312946459 0.00724999999999997
0.00727 0.634583127484262 -0.00160381936910507 2.6682532966621 0.0207980150076894 0.37140437865411 0.00726000000000006
0.00728 0.480376549341098 0.0209302164613602 2.55066846719375 0.0139466466555409 0.376909441112459 0.00727
0.00729 0.46007437329699 0.207379579117014 2.57347002845813 0.0172144803831457 0.388257104519915 0.00727999999999995
0.0073 0.561499434859779 -0.0473368235194699 2.6264384768438 0.0142306289099025 0.379463404914961 0.00729000000000004
0.00731 0.331062403690136 0.0112768885592585 2.61199508134212 0.00494574381929288 0.38603579393241 0.00729999999999999
0.00732 0.47729825443529 0.23142850333671 2.49498011040443 0.0229928909976378 0.382914567413662 0.00731000000000007
0.00733 0.601958783699988 0.0394543475596326 2.51566227051428 0.016272946429409 0.393455404037884 0.00732000000000002
0.00734 0.465696140180497 0.0714138482686829 2.61348481498316 0.00879579505128158 0.398902218406659 0.00732999999999997
0.00735 0.39053740230524 -0.0204046980649589 2.62105043997647 0.0147419544108897 0.387296097576984 0.00734000000000005
0.00736 0.533629590605269 0.0968990646239942 2.55022818969864 0.0198274042730745 0.373847134779169 0.00735
0.00737 0.424112628586766 0.30868837575117 2.63040222867548 0.0173497058685687 0.409198994027474 0.00735999999999995
0.00738 0.445646713502564 -0.00165531348206027 2.70214523822401 0.0164947473616259 0.393384488703396 0.00737000000000004
0.00739 0.410324512323945 -0.00427730093738639 2.58497934811432 0.0154739304168522 0.391224304779647 0.00737999999999998
0.0074 0.426353582994543 0.0265948448111191 2.64239759911441 0.0118665193004319 0.375974619402077 0.00739000000000007
0.00741 0.476744326832994 -0.0263937867850459 2.54683998502815 0.0129009443929729 0.379877144873011 0.00740000000000002
0.00742 0.504931322637931 0.1195141280443 2.66583869948377 0.0246364935258787 0.399995333969561 0.00740999999999996
0.00743 0.288597646888757 0.00869846840400914 2.64804712713961 0.00904274950383691 0.387973031722197 0.00742000000000005
0.00744 0.505232584019344 0.0302993865414721 2.75261850469727 0.015535568245341 0.403993531783415 0.00743
0.00745 0.43523181406998 0.0424050560399905 2.60348112854092 0.0115728235709202 0.374930557098499 0.00743999999999994
0.00746 0.376014088740102 0.188871542033192 2.55358328866 0.0193059710745634 0.396925422023857 0.00745000000000003
0.00747 0.394760968161288 0.187796320614091 2.80312080154492 0.0179693799825859 0.391563513916216 0.00745999999999998
0.00748 0.378417456611534 0.0766326254210252 2.68057038968452 0.00798640390112837 0.384227531975056 0.00747000000000007
0.00749 0.359979415551825 0.222727482462271 2.69304927949094 0.0215413115536356 0.40766260433019 0.00748000000000001
0.0075 0.445652416441464 0.0295447999998982 2.67398537178086 0.0167325637692239 0.380486788052979 0.00748999999999996
0.00751 0.516539509912298 -0.0399539523968125 2.62596039196702 0.0146039390187546 0.405515831080233 0.00750000000000005
0.00752 0.396237111661733 -0.0983709705025096 2.56779447762428 0.0069808281415055 0.362988057622005 0.00750999999999999
0.00753 0.375167977442377 0.0274415496126572 2.66738692528422 0.0197390855010975 0.384929080978044 0.00751999999999994
0.00754 0.423601285512346 0.126037693489091 2.67427469898567 0.0120215980118732 0.403371023688049 0.00753000000000003
0.00755 0.468242356757904 -0.061664193494606 2.66402702601062 0.00741814936018857 0.395097753720694 0.00753999999999997
0.00756 0.279719040340055 0.187216352968325 2.7294366268903 0.0118084782480923 0.400807377798274 0.00755000000000006
0.00757 0.376824355336916 0.0134324230264928 2.61530850001219 0.0157007895648621 0.39599332377098 0.00756000000000001
0.00758 0.466030511268372 0.0453025173373699 2.64604624368925 0.00874226403418593 0.388715704812582 0.00756999999999996
0.00759 0.354929324605742 0.198072460516571 2.73831127280426 0.0140636546918948 0.391021955354949 0.00758000000000004
0.0076 0.310622066250647 0.0134708485449387 2.72124787326592 0.010590125176898 0.41414241500348 0.00758999999999999
0.00761 0.516335284466223 0.175618766516495 2.74468966449286 0.022061850614695 0.418708222650254 0.00760000000000008
0.00762 0.422198194375768 0.00186407791147211 2.815006234725 0.0129517830663265 0.401251997323973 0.00761000000000002
0.00763 0.517384323729045 0.128485195035541 2.63442420730359 0.0138597382129545 0.396946611216485 0.00761999999999997
0.00764 0.338710084484817 0.179243931760895 2.63651569876617 0.0169682218590176 0.39565288250219 0.00763000000000006
0.00765 0.49606686865696 0.178363173270946 2.73864407162511 0.0208460679498628 0.40324268299115 0.00764000000000001
0.00766 0.484469801986656 0.0241097224196742 2.68006028233378 0.011410125788328 0.389691368403698 0.00764999999999995
0.00767 0.311882026141939 0.157982452837374 2.74951441777933 0.0144148869819957 0.414629335573688 0.00766000000000004
0.00768 0.391494948491454 0.153655400854421 2.84251780895007 0.0222678159041399 0.402530337259868 0.00766999999999999
0.00769 0.539022889129431 0.146928177944115 2.65853168628868 0.0198312730213791 0.391750260907339 0.00768000000000007
0.0077 0.459730951558868 0.0878479128347099 2.70883604935486 0.0148342674054353 0.406295823187998 0.00769000000000002
0.00771 0.300402265155005 0.0789346532268592 2.69613507952016 0.00538905320202621 0.38364829779101 0.00769999999999997
0.00772 0.23162602043374 0.0165479272712068 2.70747348312918 0.00319155606992486 0.407568220576605 0.00771000000000006
0.00773 0.49088595779235 0.18858087940242 2.70103848075349 0.0237762539273941 0.402899980214203 0.00772
0.00774 0.539345484304499 0.104779577255094 2.79201771290634 0.0182059736931745 0.400190714303424 0.00772999999999995
0.00775 0.47388006782212 0.112151479288298 2.75838110703249 0.0176185162614714 0.403592843399508 0.00774000000000004
0.00776 0.297807361420152 0.024288949816623 2.69549798971943 0.00559772994783527 0.405463110934186 0.00774999999999998
0.00777 0.416191497062367 -0.000345123088851097 2.73621065995729 0.0139242141949897 0.405126559624593 0.00776000000000007
0.00778 0.501342260926073 -0.0595625258116258 2.79626261538228 0.018423038863251 0.416122798159342 0.00777000000000002
0.00779 0.428523960816778 0.170145393175795 2.81951817656464 0.0180461551480593 0.419163037034417 0.00777999999999996
0.0078 0.42562749693619 0.0799850156614027 2.77555181036508 0.0134600593633595 0.417044707080069 0.00779000000000005
0.00781 0.440240228388172 0.0338139782500393 2.81031842975331 0.014467894702662 0.417678683450263 0.0078
0.00782 0.50389380328082 0.0420825558279694 2.85439973353054 0.0176575636931535 0.417619633949843 0.00780999999999994
0.00783 0.366908336818223 0.271129493464343 2.75918675998323 0.0174470637306746 0.399492948269375 0.00782000000000003
0.00784 0.689064020417465 0.164260943580744 2.75022510382378 0.0243120280860133 0.392321292438814 0.00782999999999998
0.00785 0.522146700189182 -0.000938483757080288 2.75337090371161 0.0174343993979319 0.423581142601328 0.00784000000000007
0.00786 0.303366831609591 0.178611645791778 2.89989197628802 0.0120212627731903 0.406449673036711 0.00785000000000001
0.00787 0.584393090250138 0.212614452790905 2.77777042361218 0.0255543562457534 0.405318202206921 0.00785999999999996
0.00788 0.524553650574653 0.175249211691916 2.64991730915093 0.0254721192843973 0.399740974830592 0.00787000000000005
0.00789 0.440837282330511 0.0612655951568403 2.93869638682621 0.00886742632217009 0.440746485210228 0.00787999999999999
0.0079 0.448826338933983 0.0983394796331219 2.91209596254799 0.0160769583839488 0.405248015459476 0.00788999999999994
0.00791 0.387365939442847 0.212072089597096 2.6582951659728 0.0238669503483682 0.408515281069102 0.00790000000000003
0.00792 0.395046072710949 0.18510447820526 2.96452516020935 0.0193721100877183 0.437591040454525 0.00790999999999998
0.00793 0.508976421854042 0.0399583121229394 2.71177590081075 0.011012994100543 0.410550521347259 0.00792000000000006
0.00794 0.339707095340262 0.0935411302277523 2.83315615289329 0.0074855216093016 0.437571795801632 0.00793000000000001
0.00795 0.552831402554511 0.223589381753617 2.79446405633009 0.0309619933812228 0.404106837838198 0.00793999999999996
0.00796 0.452238092018595 0.207282975972958 2.79536740449396 0.0155954826523895 0.415113497197669 0.00795000000000004
0.00797 0.546357548919386 0.0581059419363504 2.88904693434949 0.0239460238466388 0.429172054881218 0.00795999999999999
0.00798 0.508588043843021 0.13219042720379 2.88231510192624 0.0235291296764745 0.403358588640804 0.00797000000000008
0.00799 0.551932613510337 0.0459348987619243 2.79420181744955 0.0131106124225894 0.442752970248296 0.00798000000000003
0.008 0.450994872371613 0.251987122940614 2.87631300853424 0.0127528559748696 0.417712289943686 0.00798999999999997
0.00801 0.582473576266134 0.143495675812492 2.78352346133484 0.022224635292663 0.416664742536337 0.00800000000000006
0.00802 0.583496380563749 0.188677916482003 2.71538499461087 0.020901391017 0.39156066564733 0.00801000000000001
0.00803 0.532177587896336 0.332613231828574 2.88113063042186 0.0228751549133467 0.417824912453931 0.00801999999999995
0.00804 0.652166423079565 0.246016648959208 2.68346824043903 0.0318451685190882 0.399664037306731 0.00803000000000004
0.00805 0.5820916600404 0.280862703417795 2.77880599538103 0.0195847700588084 0.408275748355019 0.00803999999999999
0.00806 0.50719975477642 0.14449331920195 2.9048021159775 0.0228375609413467 0.416964621064742 0.00805000000000008
0.00807 0.47106957893109 0.199556449920316 2.83134213908641 0.0303089350740458 0.409878562999948 0.00806000000000002
0.00808 0.490849033817352 0.168747797063517 2.82081551461867 0.023850080633748 0.422115524381454 0.00806999999999997
0.00809 0.463102664461192 0.217894127980594 2.84812489938412 0.0160467371788978 0.424036102675749 0.00808000000000006
0.0081 0.337854486674223 0.252224442994429 2.92715418811657 0.0202810585725061 0.406373690064712 0.00809
0.00811 0.407917794901327 0.201603538818599 2.8067023630903 0.0119965951859343 0.448839582028919 0.00809999999999995
0.00812 0.474659018765709 0.19024835750821 3.04237282083118 0.0165363932625286 0.432552145883762 0.00811000000000004
0.00813 0.498490618201506 0.180155912638699 2.8585961077607 0.0218678987587842 0.405165924044169 0.00811999999999998
0.00814 0.392810993624033 0.023870324801255 2.84546620414268 0.0141658789218567 0.420027814964049 0.00813000000000007
0.00815 0.587016335393032 0.24975751682235 2.90196661667254 0.0209117966805185 0.413839466672775 0.00814000000000002
0.00816 0.515699801943903 0.0813236654417303 2.88193427478776 0.0148941805972161 0.423516232390347 0.00814999999999996
0.00817 0.23439941484495 0.162716183180837 2.92702312833052 0.0109209805316854 0.433468452010102 0.00816000000000005
0.00818 0.597841914760257 0.253444151222218 2.83342033609618 0.026204200747536 0.419884943264993 0.00817
0.00819 0.539055550792801 0.142949996494141 2.87929121232115 0.0236834276023374 0.419044568026413 0.00817999999999995
0.0082 0.520906047252546 0.0143901987430074 2.84875205245724 0.0152913729374668 0.412753823746638 0.00819000000000003
0.00821 0.421824772855375 0.115514557107575 2.8573604251544 0.0162612053545574 0.407517749508209 0.00819999999999998
0.00822 0.458398679817645 0.245074089143931 2.8948865349365 0.016998116314993 0.426761803219536 0.00821000000000007
0.00823 0.496564590202144 0.186486039387677 2.88687673483919 0.0161595220347695 0.436821583997603 0.00822000000000002
0.00824 0.360738520330019 0.036593123575055 2.89322108630295 0.0093562142749362 0.410171876402584 0.00822999999999996
0.00825 0.5188358613238 0.185790742374078 3.04107085866503 0.0217028291861015 0.441588806407359 0.00824000000000005
0.00826 0.513444538648805 0.064174137900891 2.89687238684236 0.0141596191660501 0.412760121106367 0.00825
0.00827 0.507846295604418 0.202113610985412 2.89424005688627 0.0219680191712743 0.434741708243974 0.00825999999999994
0.00828 0.510114750828612 -0.0269893204674019 2.87949854101663 0.0162366810663759 0.412933062533746 0.00827000000000003
0.00829 0.540219007035052 0.0919617992917142 3.06705363865906 0.0142056587758675 0.448291960124323 0.00827999999999998
0.0083 0.636488398524233 0.152614671934664 2.93582481377643 0.0164100559977066 0.424231955994742 0.00829000000000006
0.00831 0.448202215083353 0.183625509661851 3.07537689165772 0.0214862801104323 0.440035980142046 0.00830000000000001
0.00832 0.172343891836529 0.08113759074797 2.91181746944823 0.00874523425402775 0.432258532515164 0.00830999999999996
0.00833 0.557509641212542 -0.0821960509570451 2.95013179167039 0.00898717567212007 0.434523300414726 0.00832000000000005
0.00834 0.534552751349596 0.320672238938592 2.912257495198 0.0334719437010246 0.418956924763908 0.00832999999999999
0.00835 0.406211598216989 0.00724997671160441 2.88407904764581 0.0103082670304648 0.449142367937983 0.00833999999999994
0.00836 0.420415662882647 0.12295893525675 3.0235904764817 0.0119949936002317 0.452588325210351 0.00835000000000003
0.00837 0.657344763323133 0.327858368878196 3.08188296706904 0.0259049957879142 0.444830277481591 0.00835999999999997
0.00838 0.433992963559091 0.150396223478826 2.89381615151434 0.0129313026136526 0.402392812920845 0.00837000000000006
0.00839 0.484524894947299 0.0608452004097891 2.98239919506892 0.0181074972662933 0.433752459431625 0.00838000000000001
0.0084 0.561538256827522 0.0135495721721109 3.01942536776899 0.0255175629836232 0.429049666610269 0.00838999999999995
0.00841 0.424428985300878 0.223956143829091 2.910982026893 0.0253510977658006 0.425702017217845 0.00840000000000004
0.00842 0.451779639288832 0.161507828199699 3.02695742025013 0.0181023437402414 0.453023460014824 0.00840999999999999
0.00843 0.41813913082566 0.246778364730265 3.06260175764477 0.0147634911100441 0.434833709145024 0.00842000000000008
0.00844 0.403256110061417 0.00409588542880155 2.9786411357585 0.014028574181621 0.450527147650609 0.00843000000000002
0.00845 0.492571357884778 0.197895995251723 2.92145675584446 0.0218943007972208 0.438782921524103 0.00843999999999997
0.00846 0.499849145294943 0.175900966945622 2.98977629075133 0.0216536573714221 0.440740625987844 0.00845000000000006
0.00847 0.447340444951941 0.0867653920922692 3.03024549439215 0.0181156111768971 0.444606375849441 0.00846
0.00848 0.449412085555429 0.0674483616170489 2.94184476851356 0.0155182999318319 0.425872173041134 0.00846999999999995
0.00849 0.515002223133284 0.391884521563807 2.94904011729875 0.0311368246040488 0.426942528949792 0.00848000000000004
0.0085 0.404482125692738 0.00445542924021412 3.09602014727669 0.0137113357976097 0.450693230323937 0.00848999999999999
0.00851 0.377836527804624 0.0647833356114362 3.10566383245493 0.00498923731519678 0.442354838824846 0.00850000000000007
0.00852 0.496553546093546 0.302103715552874 2.93685024970405 0.0186549359654811 0.435584542468983 0.00851000000000002
0.00853 0.577554664629657 0.155786422276499 3.01721216105378 0.0213769869399857 0.445022046857925 0.00851999999999997
0.00854 0.351641714213907 0.162939519403978 3.04803622689472 0.01761068521544 0.422263620528075 0.00853000000000005
0.00855 0.541712680093999 0.0988316201710079 2.87552976456757 0.0256646804624918 0.437393578704989 0.00854
0.00856 0.49987401229486 0.348872494155978 3.01984122909572 0.0238224799859196 0.432296210543799 0.00854999999999995
0.00857 0.379748168434286 0.253951249306731 2.94272576133412 0.0228792934232925 0.423346349635619 0.00856000000000003
0.00858 0.566583874247082 0.165184258831317 2.97702635478621 0.0128589267766591 0.459853947960723 0.00856999999999998
0.00859 0.503336549261348 0.103406467325943 3.06933286944638 0.0169295599273161 0.448585652209941 0.00858000000000007
0.0086 0.34043874289628 0.238827598897107 3.1018644418599 0.0116454362801153 0.44800323515726 0.00859000000000002
0.00861 0.722631600164848 0.188439391048188 3.03901535125735 0.0331641138952261 0.469746967226145 0.00859999999999996
0.00862 0.418877328105472 0.126553283489527 3.05552988797026 0.0165654469856 0.439884604552074 0.00861000000000005
0.00863 0.430386301326211 0.218578625462517 3.04817722299749 0.0189375728122131 0.443792826858402 0.00862
0.00864 0.566011266483322 0.193512262474612 3.07760250029873 0.0230369785126508 0.445210965035111 0.00862999999999994
0.00865 0.501389727625991 0.235555876699236 3.0015108712916 0.0199595058292996 0.445919328544822 0.00864000000000003
0.00866 0.514404405676331 0.177003410290013 2.99395222324482 0.0147394877760047 0.453235565886182 0.00864999999999998
0.00867 0.45162784128841 0.0327757938330788 3.05838117479728 0.00967313067092612 0.473408831344462 0.00866000000000007
0.00868 0.479455596133142 0.251046014972712 3.10341594098534 0.0198155797835228 0.446692105085191 0.00867000000000001
0.00869 0.486523301415167 0.103844610998911 3.07453806996248 0.0130604447995237 0.439899447395667 0.00867999999999996
0.0087 0.487187939212945 -0.0747275743328435 3.10144601682813 0.0154487530130959 0.459937008367619 0.00869000000000005
0.00871 0.469422511696229 0.181307575013337 3.10155916723534 0.0196822701413865 0.441083306976942 0.00869999999999999
0.00872 0.389752094612376 0.302270071906152 3.0303412399692 0.0200035591324719 0.437225649139008 0.00871000000000008
0.00873 0.548006227784015 -0.0674231893954517 3.0810883938521 0.0103075947222467 0.460053596656656 0.00872000000000003
0.00874 0.580792214606298 0.0136517204394417 2.97978670941151 0.0220100413191774 0.446527972064177 0.00872999999999997
0.00875 0.598035501882771 0.152131109886668 3.07210766081907 0.0153586848453919 0.453422134083006 0.00874000000000006
0.00876 0.60325616273071 0.124209584832572 3.06945155910411 0.0169153808949042 0.448352992793289 0.00875000000000001
0.00877 0.440782585155049 0.254110993669269 3.04382072821892 0.0175590576362518 0.453564254695888 0.00875999999999996
0.00878 0.394365922347008 0.318226482500794 3.03239294971925 0.0173152159432773 0.454747858100755 0.00877000000000004
0.00879 0.555263301891598 0.196238094995862 3.11552688474533 0.0248899053254317 0.471047040801409 0.00877999999999999
0.0088 0.578174885823874 0.160253866424249 3.19750251303806 0.0246260841931205 0.442733115256756 0.00879000000000008
0.00881 0.489830634820208 0.144583192724571 3.04004155749929 0.0185573450586887 0.460367065038948 0.00880000000000002
0.00882 0.445237249047492 0.0980637581361302 3.21044467894533 0.0175336208158808 0.467306568467867 0.00880999999999997
0.00883 0.540047295014829 0.13993484696417 3.10587028617985 0.0265994370838121 0.447591224235972 0.00882000000000006
0.00884 0.493410572139382 0.0911488239811526 3.23037116262679 0.0147017533685503 0.455173443153284 0.00883
0.00885 0.45016927551681 0.120299577930519 3.03409318689943 0.0178887873704336 0.444976802108407 0.00883999999999995
0.00886 0.370280025251921 0.122679467888681 3.13545314679254 0.00518483842500254 0.45995196406862 0.00885000000000004
0.00887 0.422978099862179 0.00431618744702404 3.11465997302675 0.0109956298728119 0.460122463845301 0.00885999999999999
0.00888 0.426348800128725 0.249099879552732 3.11529772979566 0.0207091062093799 0.471419384986535 0.00887000000000007
0.00889 0.574524157082811 0.263705899826205 3.1011200721201 0.0185111592475741 0.44937534450367 0.00888000000000002
0.0089 0.316310075107642 0.155907788595417 2.98946033265611 0.0142477597253437 0.429784903280234 0.00888999999999997
0.00891 0.298834540207026 0.121458029356787 3.17607601231323 0.014641405679025 0.487669194272816 0.00890000000000005
0.00892 0.707640966598431 0.0684877356172564 3.25664306757948 0.0184722185951754 0.468994404041135 0.00891
0.00893 0.457307181327407 0.234949572783198 3.15773009902435 0.0238224931445734 0.444436150336425 0.00891999999999995
0.00894 0.338428505136535 0.225902257763857 3.21285530820452 0.0191707106263763 0.484412543521661 0.00893000000000004
0.00895 0.530880112898483 -0.038164224409815 3.14884874457632 0.0130906520929271 0.459588596458043 0.00893999999999998
0.00896 0.480697288644566 0.136893103434708 3.25324720336949 0.0235404865254288 0.483606481653034 0.00895000000000007
0.00897 0.494387133791568 0.122387504120499 3.22071610916092 0.0182303765912819 0.485679480489538 0.00896000000000002
0.00898 0.435978652054457 0.0645363335778696 3.20971109712944 0.0114008362320678 0.456989098453322 0.00896999999999996
0.00899 0.300447939633818 0.145729831488815 3.08777105174167 0.0105821979189031 0.482800172410298 0.00898000000000005
0.009 0.649309955609692 0.187602764218735 3.1680155666271 0.0174819236647833 0.464206151912768 0.00899
0.00901 0.530188010594735 0.0404080542352234 3.1225855949614 0.0151104313154752 0.457455607990434 0.00899999999999994
0.00902 0.360184274500394 0.0249023032704632 3.246224637646 0.00377556674647503 0.462761522942687 0.00901000000000003
0.00903 0.441971518298564 0.084059780607024 3.14556890809827 0.0115951104508919 0.46813019450817 0.00901999999999998
0.00904 0.37725202218917 0.172792947589037 3.19230915200546 0.0170911065796458 0.477893950406843 0.00903000000000007
0.00905 0.349180908190409 0.0534807547113474 3.31673983331814 0.0109321123796178 0.476639033107429 0.00904000000000001
0.00906 0.392350075799138 0.229699637685 3.13860014477363 0.0201922114874454 0.453442833744418 0.00904999999999996
0.00907 0.580536761217563 0.221079270902821 3.19377643969812 0.0189267359446126 0.49772904333696 0.00906000000000005
0.00908 0.526274748708602 0.233934599579225 3.20087018039911 0.0195134147302333 0.456022044204706 0.00906999999999999
0.00909 0.511595993315441 -0.00416613185997664 3.15063731498979 0.0156302868355839 0.481273098122084 0.00907999999999994
0.0091 0.453259701437935 0.0835231267128271 3.28306897449902 0.00883828910869386 0.477084551027093 0.00909000000000003
0.00911 0.63567867335176 0.202882504430953 3.16084975488183 0.0208644216858177 0.457948052962666 0.00909999999999997
0.00912 0.473596864642826 0.277742471831828 3.28975832532587 0.0228099072803622 0.499252885286362 0.00911000000000006
0.00913 0.353644061875471 -0.00392532696871034 3.26708849878276 0.00659272133345412 0.479182477677975 0.00912000000000001
0.00914 0.595472291111292 0.0875156141177671 3.19419489676932 0.0173353042746266 0.45728336269227 0.00912999999999996
0.00915 0.360551224116966 0.250262865946799 3.29360229066147 0.0264032636562236 0.46785293834067 0.00914000000000004
0.00916 0.641080806533528 0.157313588238054 3.19315911907356 0.0207145539870894 0.476523712407009 0.00914999999999999
0.00917 0.432311254626792 0.183565677402079 3.25436533120827 0.0082222206893809 0.485833133791871 0.00916000000000008
0.00918 0.499485836571043 0.100747708672741 3.19020669760474 0.0209331462199013 0.477691083136439 0.00917000000000002
0.00919 0.445970931617512 0.154427560135293 3.20389887044273 0.0189763371628415 0.476594800961139 0.00917999999999997
0.0092 0.454630791718477 0.214660988425535 3.27271624322276 0.0129444814607657 0.468126260460098 0.00919000000000006
0.00921 0.391905772015491 -0.00743454560491068 3.34248274737843 0.0157906049541683 0.493399691301943 0.00920000000000001
0.00922 0.519008819740046 0.180332927145616 3.29138699054275 0.0162160726787662 0.470705150344687 0.00920999999999995
0.00923 0.543639126450205 0.157663964734083 3.27358750211488 0.020052529464756 0.477910810564395 0.00922000000000004
0.00924 0.510792009758088 0.0470593988391682 3.18687828931442 0.0145535500462618 0.478432436982513 0.00922999999999999
0.00925 0.565626759789268 0.165563740162 3.25630707047426 0.0280837449710533 0.457904524344959 0.00924000000000007
0.00926 0.432795870551448 0.171080150731581 3.32282246072997 0.0174213027616164 0.488993849623187 0.00925000000000002
0.00927 0.455893516788262 0.124026981410614 3.22638736349639 0.0126557806431875 0.469615270084129 0.00925999999999997
0.00928 0.551816725062329 0.144664980394408 3.25847820248835 0.0222017892424994 0.479777008149694 0.00927000000000006
0.00929 0.455767827913503 0.256940210628022 3.20194183568833 0.0178413136644255 0.481760691045618 0.00928
0.0093 0.440654182719454 0.0949890946577755 3.29088149319438 0.0189029575973649 0.486674258436023 0.00928999999999995
0.00931 0.534267405331342 0.055744169765814 3.26096349568476 0.0160991265875733 0.469351252963669 0.00930000000000004
0.00932 0.5204676665145 0.130184612238605 3.27883768065021 0.0146311738734375 0.483108014396062 0.00930999999999998
0.00933 0.361509668440749 0.146117769144096 3.26125332135065 0.0171897224848151 0.487313931831001 0.00932000000000007
0.00934 0.517050841365632 -0.0985960893367356 3.33732651482602 0.00746121678637367 0.480947151426881 0.00933000000000002
0.00935 0.581364206674864 0.203276705928447 3.3206892518687 0.0182418531401749 0.471466920311281 0.00933999999999996
0.00936 0.377686501528342 0.213472639173595 3.24045689606302 0.019447130704701 0.465023685726527 0.00935000000000005
0.00937 0.429748441504219 0.0460967708036508 3.34304658704944 0.0168339983676754 0.494956638347439 0.00936
0.00938 0.419301686928633 0.115638586220484 3.32331739427135 0.00963117286361407 0.479990956844681 0.00936999999999994
0.00939 0.473286659304335 0.153734766504335 3.30380369673213 0.0162385803927832 0.500066294311399 0.00938000000000003
0.0094 0.531405336846999 0.165567184434767 3.40595018950655 0.0270105184805506 0.481244702559834 0.00938999999999998
0.00941 0.408133736927156 0.0744692295053765 3.32560009351537 0.0141652668533418 0.497518843514274 0.00940000000000007
0.00942 0.479179689348346 0.115710664449128 3.35478075745147 0.0274782004541065 0.522318140521594 0.00941000000000001
0.00943 0.505970162781032 0.316436492123561 3.381111653791 0.020398779926279 0.484939972726078 0.00941999999999996
0.00944 0.596852511118352 0.115071767942139 3.39009508496403 0.0144494387140699 0.506824303485072 0.00943000000000005
0.00945 0.346343531587162 0.173006321084621 3.34020773211754 0.0181368995906607 0.486546055618623 0.00943999999999999
0.00946 0.524354037103528 0.0860816349943219 3.37891641628216 0.0110512441664494 0.484500103588393 0.00944999999999994
0.00947 0.545218124332265 0.233521402677836 3.3454727557815 0.020993837023042 0.499232165049318 0.00946000000000003
0.00948 0.390212122653382 0.220473222574641 3.40261665773335 0.011320421662057 0.498876147430036 0.00946999999999997
0.00949 0.515876306679921 0.149765755221843 3.46142493687881 0.0228974965318677 0.491949074076831 0.00948000000000006
0.0095 0.420777136600716 0.234843933448725 3.3937842406265 0.0219287188436177 0.496244064382326 0.00949000000000001
0.00951 0.464199802074007 0.153925018239359 3.29057715809009 0.0128086789941735 0.486081274912298 0.00949999999999996
0.00952 0.379180456517335 0.0376868136445757 3.50671366366375 0.0174481712045783 0.497984739156205 0.00951000000000004
0.00953 0.461702192630065 0.0568650498081731 3.33908377377076 0.0115136134375967 0.505690894778689 0.00951999999999999
0.00954 0.461260195581981 0.0659449187709479 3.48829440459625 0.0152131942083324 0.523968023354873 0.00953000000000008
0.00955 0.351808016678641 0.0297596026549818 3.43169356866938 0.00559990728966211 0.478649273504785 0.00954000000000003
0.00956 0.514381395592875 0.291433394980365 3.34270503389166 0.0239999550220299 0.526240991409989 0.00954999999999997
0.00957 0.34271370341165 0.309546169940876 3.45231039560897 0.0155009952874399 0.508117239137716 0.00956000000000006
0.00958 0.465540004238728 0.168546820982516 3.45295914241508 0.0108906073794866 0.512939624390371 0.00957000000000001
0.00959 0.50657665437831 0.231029752195562 3.51251559545355 0.0207768965796971 0.50005396852307 0.00957999999999995
0.0096 0.518161157815268 0.0923372298873411 3.36415886034183 0.0164944104920205 0.493154705427571 0.00959000000000004
0.00961 0.6128064768493 0.292551362182732 3.44345707807886 0.0321944461396921 0.488286573621295 0.00959999999999999
0.00962 0.51098317163361 0.193751616083236 3.35438946762304 0.0200330532464313 0.478846462231444 0.00961000000000008
0.00963 0.526674560318764 0.15533249338031 3.46497848089036 0.0165644399439897 0.512016667200491 0.00962000000000002
0.00964 0.509160504501973 0.0635052390074282 3.47402540194852 0.0198030140479353 0.494834689503805 0.00962999999999997
0.00965 0.425562946967316 0.190420102428552 3.32111603571282 0.0119715565217655 0.498327205756721 0.00964000000000006
0.00966 0.38286215936606 0.112804993951853 3.51084976403026 0.00844509984149317 0.490960462598848 0.00965
0.00967 0.449731610657006 0.265500738760344 3.28864009660921 0.0191059012360012 0.505740100723447 0.00965999999999995
0.00968 0.494176092235491 0.1390317741679 3.56250021320286 0.0217674682694899 0.525820916846563 0.00967000000000004
0.00969 0.383910327450152 0.0449388136730706 3.46127385244208 0.0112304135876516 0.49180151056595 0.00967999999999998
0.0097 0.426122235212115 0.134739548870933 3.36158363293382 0.0164688892744532 0.486850330530537 0.00969000000000007
0.00971 0.512940654684098 0.195663874240458 3.49411814789232 0.0172446390443812 0.508990768946245 0.00970000000000002
0.00972 0.316929351790823 0.226991951230333 3.33759173395345 0.0156406442600845 0.475668562646467 0.00970999999999997
0.00973 0.538228642753966 0.250829936657886 3.41986249164979 0.0268032434332115 0.508357294249443 0.00972000000000005
0.00974 0.525378459534017 0.157476267933308 3.44573032891462 0.0194722465485147 0.514845423620808 0.00973
0.00975 0.392603577747664 0.132785290288126 3.47598297630554 0.0119151589660264 0.517728326459636 0.00973999999999994
0.00976 0.542341604319676 0.156362195379817 3.4743212116659 0.0273182882278777 0.504540551813145 0.00975000000000003
0.00977 0.476636345555137 0.067433336783202 3.51102671631117 0.0130848300844989 0.494017590067659 0.00975999999999998
0.00978 0.368772809339703 0.160767327770813 3.44679439035901 0.0145218812760128 0.507736770675871 0.00977000000000007
0.00979 0.485772789353495 0.174076424013996 3.50130645626723 0.0207231856051387 0.507353573746894 0.00978000000000001
0.0098 0.482045737451913 0.221884930390056 3.43111429702869 0.0173402297121185 0.507841692054429 0.00978999999999996
0.00981 0.538992960455156 0.220896837944135 3.41249078206271 0.0264065768654796 0.48472149274958 0.00980000000000005
0.00982 0.441044586119962 0.213802339378425 3.38892260936258 0.0158206858658066 0.502470656900164 0.00981
0.00983 0.58029770030013 0.204531670708461 3.45202794499197 0.0259514982072903 0.525046628743113 0.00981999999999994
0.00984 0.568728251724504 0.144310608381078 3.47014549019591 0.0253543958993826 0.493753864238765 0.00983000000000003
0.00985 0.393813605106375 0.179696742486049 3.45694010098005 0.0173708399037562 0.502199035601044 0.00983999999999998
0.00986 0.473395186000745 0.253849330272094 3.45588594834964 0.0188378963062807 0.501518181998897 0.00985000000000006
0.00987 0.351418772115757 0.128352256202044 3.42827351277368 0.0160869147076515 0.487577175716414 0.00986000000000001
0.00988 0.619947816888684 0.0410551374832065 3.36638173183281 0.0158758277455973 0.524432255108478 0.00986999999999996
0.00989 0.688042576032701 0.196166180143647 3.4376213962434 0.0218360064178557 0.510616789087469 0.00988000000000004
0.0099 0.60446144358737 0.374289781326877 3.41403630081123 0.0264519282082384 0.507163615744729 0.00988999999999999
0.00991 0.358496026748526 -0.0145611026879384 3.51219012882813 0.00980311796234838 0.515738581448946 0.00990000000000008
0.00992 0.374472383415734 -0.0764629327907865 3.52063445059275 0.00500829202283336 0.509812210224712 0.00991000000000003
0.00993 0.357814311161457 0.208446911366007 3.50458909139589 0.0182909258806204 0.531678591179468 0.00991999999999997
0.00994 0.528018529991876 0.272493380772979 3.48716939777324 0.0192525391880792 0.53253136405071 0.00993000000000006
0.00995 0.547923586637865 0.170866697227672 3.58683957267424 0.0155725187769527 0.530098903362635 0.00994000000000001
0.00996 0.355713377447737 0.157500582661835 3.51393154243022 0.0108119896772509 0.53066501788087 0.00994999999999995
0.00997 0.463415414073879 0.202801966752858 3.48922254999425 0.0200002849284363 0.523792821910892 0.00996000000000004
0.00998 0.48457621335531 0.143803878788237 3.58677774316936 0.018620817028351 0.522707024829998 0.00996999999999999
0.00999 0.505466730425254 0.156284149183585 3.43988512363396 0.0139290845665319 0.520087402040436 0.00998000000000008
0.01 0.486455627850273 0.233057868415625 3.56624825410428 0.0291414734177241 0.523847615720317 0.00999000000000002
0.01001 0.365194352709053 0.230201969662142 3.58080255564788 0.0183537469311107 0.515615556717142 0.00999999999999997
0.01002 0.365627063938023 0.185052368230402 3.45657171221414 0.0212124568533583 0.522110151131692 0.0100100000000001
0.01003 0.375986863870861 0.0761399421857838 3.57365593311338 0.0166818107031589 0.512945520528167 0.01002
0.01004 0.344437406698522 0.254917781326235 3.47958007087173 0.018269814912035 0.49846148661355 0.01003
0.01005 0.449899283842221 0.13479788408059 3.48683662957831 0.0174964586356406 0.533053276306371 0.01004
0.01006 0.660511771943234 0.111791281303537 3.65039838573889 0.0201330584741216 0.535443237486195 0.01005
0.01007 0.385579602133935 0.215841044803454 3.54376870221043 0.0212116036115947 0.528345639493703 0.0100600000000001
0.01008 0.414286182646784 0.089758707370478 3.65248637734563 0.017255773717427 0.537975218364622 0.01007
0.01009 0.58896385479785 0.0206719978844813 3.64321739997797 0.0131994703168544 0.525149669168801 0.01008
0.0101 0.468709109891828 0.162371576285424 3.64720757734087 0.0139932950398359 0.502685341489728 0.0100900000000001
0.01011 0.50437870158986 0.0549721418154551 3.48927634312764 0.021448159670143 0.505005561103461 0.0101
0.01012 0.495938519713934 0.396692099195725 3.58684545090964 0.027650606175256 0.544073582947222 0.0101099999999999
0.01013 0.513128195276413 0.293869381419109 3.5882086050981 0.0247116420577242 0.522061995297957 0.01012
0.01014 0.348317756155737 0.0380728922050618 3.63189915942527 0.00387627670714152 0.536935639828789 0.01013
0.01015 0.462578059451196 0.120485013197387 3.52367478366525 0.0138893692852752 0.515847781934051 0.0101400000000001
0.01016 0.500297944974839 0.421496508812164 3.61262789398469 0.0299860910232086 0.540068810948114 0.01015
0.01017 0.48499443949302 0.119871583313187 3.66315387836316 0.0213647340073453 0.53139881195432 0.01016
0.01018 0.565188758428328 0.133299757884575 3.65860538868008 0.0227564731692543 0.51878354618422 0.01017
0.01019 0.32022517301728 0.168457980545232 3.71613482144096 0.00828168324341367 0.545264362568135 0.01018
0.0102 0.273746875250048 0.104630519366512 3.68406409384063 0.0151671482054498 0.532718460486552 0.0101899999999999
0.01021 0.539992099885117 0.140456960544895 3.57793770923522 0.0226282503905254 0.533672831836674 0.0102
0.01022 0.542175565102034 0.177867547864147 3.6152413348426 0.0190722387803049 0.531817136493285 0.01021
0.01023 0.334694639499126 0.10171375226383 3.63161560041087 0.0124621854851386 0.524659889529587 0.0102200000000001
0.01024 0.572388353739901 0.120250605797007 3.541235853491 0.019708024778935 0.519157844503734 0.01023
0.01025 0.494126137432996 -0.0437013258604021 3.76766859656258 0.0175068374648719 0.548167086737551 0.01024
0.01026 0.431730385316734 0.0763210053579626 3.75488320537477 0.0110571523377855 0.528554872070464 0.01025
0.01027 0.449648845724927 0.229537853204303 3.65422910754362 0.0188741012676711 0.534841290486505 0.01026
0.01028 0.539055671356417 0.11887719159679 3.58927241512187 0.0119390808730351 0.552730780603606 0.0102700000000001
0.01029 0.4009974081245 0.192879351829276 3.62088255780627 0.0162463901300484 0.540068577712686 0.01028
0.0103 0.534103743820516 0.173805639421918 3.67386680569495 0.0199418345782115 0.53600997572253 0.01029
0.01031 0.439711820169857 0.0985489284701428 3.57485307094668 0.00795969154503977 0.51612566746181 0.0103000000000001
0.01032 0.576797333105709 0.210641822985377 3.56193841441108 0.023362621047994 0.545843532958364 0.01031
0.01033 0.477586927434971 0.09396910346664 3.55206421149834 0.014470422985331 0.53167375976724 0.01032
0.01034 0.572887808991118 0.267257935601259 3.64208298363191 0.0237551613854431 0.537552542872309 0.01033
0.01035 0.498951779740054 0.283083205650354 3.68869989322235 0.020858649240551 0.518263827541433 0.01034
0.01036 0.459720694497528 0.167916533481824 3.64398351899347 0.0201546322217967 0.548759428406746 0.0103500000000001
0.01037 0.66215631906203 0.108825429388295 3.65353763155929 0.0178751550390513 0.554567529193844 0.01036
0.01038 0.468816523675402 0.156997666282641 3.69324801974033 0.0145169357026248 0.51574220574712 0.01037
0.01039 0.551308041478946 0.254279878656933 3.63872071658875 0.0202848274159199 0.551386829523151 0.0103800000000001
0.0104 0.364356104048387 0.319951712073982 3.71773697289271 0.021359994534855 0.567872814734444 0.01039
0.01041 0.442138807110169 0.191389324465054 3.6407920527448 0.0126696044798473 0.534115579510478 0.0104
0.01042 0.466915376588924 0.162424927302828 3.71877022332649 0.0120330283426083 0.55670484316372 0.01041
0.01043 0.440885044287595 0.244749089054503 3.79044599027489 0.0196921528892238 0.551426362074193 0.01042
0.01044 0.584470950672851 0.189664854917718 3.69213303773043 0.032730287667934 0.54131552189069 0.0104300000000001
0.01045 0.548129123831177 0.151526293600957 3.65111293704745 0.0119706680332649 0.551266679608747 0.01044
0.01046 0.395188575943705 0.351579331634343 3.71739650051469 0.0213546129846669 0.526760572142711 0.01045
0.01047 0.380367542105252 0.307220627054367 3.60665082701887 0.0247921393558413 0.53009490263435 0.0104600000000001
0.01048 0.391013807195668 0.266835970680082 3.68492637704523 0.0150595373237411 0.549984287774756 0.01047
0.01049 0.447771681526154 0.209253193650607 3.77730577486908 0.0120344009946218 0.560262696753699 0.0104799999999999
0.0105 0.629295315531125 0.159133015446215 3.78151685971239 0.0162749884273006 0.558703214744604 0.01049
0.01051 0.480537484459814 -0.0670324676138015 3.6895990283543 0.0116729675006438 0.53697887660584 0.0105
0.01052 0.491174058123552 0.170967529350233 3.77990206339235 0.0121990400619046 0.547304070533902 0.0105100000000001
0.01053 0.468862217900902 0.0773637643269621 3.66400063438004 0.0172984533784663 0.529923214451165 0.01052
0.01054 0.42512678823113 0.115124631160311 3.80543728699725 0.0191751603783166 0.54863572702682 0.01053
0.01055 0.474895596572464 0.277417857306342 3.80380090559504 0.0201044136681455 0.543858602893265 0.0105400000000001
0.01056 0.464377356504351 0.147011595392327 3.82281245554092 0.0114094614530119 0.557461808518506 0.01055
0.01057 0.465091956953093 0.33220534739695 3.84865012993213 0.0221651993156519 0.557801348914183 0.0105599999999999
0.01058 0.403526596921328 0.100617456274783 3.79857511306887 0.0137345759422155 0.545451518955776 0.01057
0.01059 0.456857431821672 0.274822416297595 3.6895482065071 0.020268013131717 0.545935595368318 0.01058
0.0106 0.399860255349441 0.234536966262132 3.72646401535709 0.0185709938797238 0.554800824458407 0.0105900000000001
0.01061 0.386001835368872 0.0925594773136539 3.74464009250594 0.0121948616807554 0.546881739577772 0.0106
0.01062 0.544141520061153 0.218569112009874 3.74311022287791 0.0233145411816497 0.545138427672317 0.01061
0.01063 0.417235972155145 0.126577578892277 3.67769594772244 0.0122303372451349 0.54834397171221 0.01062
0.01064 0.463401775390706 0.145095895777206 3.80256827702648 0.0117710727114615 0.55513380632028 0.01063
0.01065 0.575974867945334 0.306562330843643 3.8259771828896 0.027210534597556 0.553624408426337 0.0106400000000001
0.01066 0.578898368047746 0.346233581939788 3.80166416143136 0.0224208161422877 0.556647714152278 0.01065
0.01067 0.461260998695037 0.47955563399878 3.68316084720299 0.022701889483555 0.537244434576169 0.01066
0.01068 0.548163356117754 0.0393110120311856 3.70443729928423 0.0191626642856248 0.540526437838304 0.0106700000000001
0.01069 0.483573535838773 0.35407478852071 3.71813060814165 0.0218604992172564 0.553417937035347 0.01068
0.0107 0.546915179444156 0.366755991616806 3.87280188277606 0.0260457704274093 0.56845200763163 0.01069
0.01071 0.634729736521446 0.135097390237597 3.76819327510531 0.0243685168607026 0.55168130988245 0.0107
0.01072 0.355722645283275 0.315253563800397 3.70961065673461 0.0217799819103955 0.539792291257451 0.01071
0.01073 0.350777231066916 0.304420335103679 3.85166974368348 0.0136931264866328 0.561068840043585 0.0107200000000001
0.01074 0.567243371167732 0.203502114706956 3.77457797778861 0.0283105812981996 0.555249936155407 0.01073
0.01075 0.508663170769667 0.3967308877337 3.88574929649758 0.0234172186935953 0.58465652986454 0.01074
0.01076 0.613574243914403 0.315901037155333 3.76920830582341 0.0263885397888598 0.55256827720475 0.0107500000000001
0.01077 0.524233942717501 0.137756395055825 3.76409548963118 0.0170171622640612 0.563807482462272 0.01076
0.01078 0.441001245581329 0.312100052952687 3.82939260260143 0.0219448495025977 0.561590960651547 0.01077
0.01079 0.536355890160449 0.313821450014287 3.76569570430641 0.0173749566028234 0.570697985524018 0.01078
0.0108 0.297318610556209 0.342044350404133 3.85662139969837 0.0128706924974073 0.560281680502393 0.01079
0.01081 0.556030270240783 0.326201733054905 3.86527783730194 0.0264643157166804 0.5635838357645 0.0108000000000001
0.01082 0.57585498409011 0.338407794588437 3.81513392533251 0.0190463817958158 0.551235142340133 0.01081
0.01083 0.485080756234106 0.308665600841085 3.84813190973361 0.0206200454919367 0.573538738079661 0.01082
0.01084 0.595787663824502 0.317550988868314 3.90461091169006 0.0316335567389524 0.580382719256554 0.0108300000000001
0.01085 0.58399407981594 0.240436907496238 3.78735838219208 0.020336016003328 0.547762914713554 0.01084
0.01086 0.592629588162753 0.308989917669297 3.7299941771916 0.026814593477442 0.548929243236197 0.0108499999999999
0.01087 0.477107822190146 0.240757878510113 3.92905747697405 0.0160548630394431 0.571569046933864 0.01086
0.01088 0.645622320351093 0.436697402939708 3.85466864304109 0.0279715726148761 0.56744435516956 0.01087
0.01089 0.595223835914731 0.326373534417366 3.81639398701004 0.0306721789404569 0.581062637855089 0.0108800000000001
0.0109 0.654193970273812 0.12804625774934 3.86135029337583 0.0229028960927919 0.566353985878265 0.01089
0.01091 0.503375595461133 0.147946044611098 3.8700054876027 0.018574174932491 0.553175001639404 0.0109
0.01092 0.639686672600344 0.362200141341768 3.83432635453178 0.0310396449333263 0.574082289037504 0.0109100000000001
0.01093 0.611322904489463 0.342025448751501 3.91508998457387 0.021065727785835 0.580475679018299 0.01092
0.01094 0.739269989415158 0.345089263383541 3.89116407128877 0.032060966104622 0.564031636583617 0.0109299999999999
0.01095 0.332574836672633 0.23086957657616 3.9595261345068 0.0204639147401313 0.56529076028059 0.01094
0.01096 0.623004705062041 0.371616410939316 3.94285141028032 0.0209319495355977 0.57017377844461 0.01095
0.01097 0.603252361301351 0.188390620354014 3.864097842076 0.0221308615281592 0.588397862771371 0.0109600000000001
0.01098 0.622727571431453 0.466629183408803 3.96031485707378 0.0322097606968415 0.571024784973082 0.01097
0.01099 0.420600665868731 0.204926354109616 3.87295853318253 0.0151593393314068 0.573905120117668 0.01098
0.011 0.423747958725969 0.214642813682761 3.88039204219019 0.0203569017171093 0.565663274125842 0.01099
0.01101 0.577782823662802 0.314434533378152 3.91561266066624 0.0211898769238206 0.570128264148056 0.011
0.01102 0.337925059771547 0.279081112081735 3.90483491053557 0.0160502251379576 0.590562753988854 0.0110100000000001
0.01103 0.598314608226173 0.0732550248215912 4.04926740557674 0.010951868236484 0.577193077560045 0.01102
0.01104 0.530999003923597 0.333939690053015 3.79267363975904 0.0216444981541024 0.575329678960833 0.01103
0.01105 0.50374452577691 0.400943092757741 3.94583044617416 0.0287454842873197 0.583281536883531 0.0110400000000001
0.01106 0.488211098994222 0.319708381284787 3.95270153330073 0.0219096199087688 0.566919385299455 0.01105
0.01107 0.426959670313165 0.115730818246419 3.90064013020937 0.0181828056803092 0.591765893598576 0.01106
0.01108 0.439112538069821 0.23750858918193 4.02493099579078 0.0176233275026509 0.585435677145838 0.01107
0.01109 0.384432205915423 0.452689873506062 3.91526691503331 0.0218267070833535 0.550684890911083 0.01108
0.0111 0.753014342737373 0.24815248575383 3.80610619670113 0.0282725016978948 0.562154762960072 0.0110900000000001
0.01111 0.499328730094184 0.243072946708135 3.96416406542056 0.016766781038362 0.586898925462864 0.0111
0.01112 0.582532131749821 0.305658303655233 4.00091478049623 0.0265349245689908 0.570036395418181 0.01111
0.01113 0.419479710802159 0.296837987537213 3.84970980979499 0.0194945069767662 0.57244747451221 0.0111200000000001
0.01114 0.573465843295082 0.15065651363684 3.90594396093642 0.0252791966134699 0.580522118387251 0.01113
0.01115 0.528438115823181 0.235475234304297 3.96681784765473 0.0220833415949022 0.592408982127189 0.01114
0.01116 0.360605093280331 0.208521666305006 4.07115287969444 0.01661916407047 0.588637941281694 0.01115
0.01117 0.475244798247395 0.253610321767082 3.91733608169034 0.0155652771482839 0.584410948441714 0.01116
0.01118 0.606727375501607 0.270608529843953 3.91043050578173 0.0198236474781719 0.560360945318114 0.0111700000000001
0.01119 0.379237174714106 0.283775069136893 3.9477256127387 0.0141215019534954 0.602512990685244 0.01118
0.0112 0.472130834383604 0.413616981348139 4.03885212906563 0.0262677532939261 0.614796230056407 0.01119
0.01121 0.59801687910506 0.293556089180351 3.98198663668398 0.0272927336588978 0.556362400642804 0.0112000000000001
0.01122 0.434839486305746 0.382008642738455 3.88298612067424 0.0235601927102777 0.581637964244092 0.01121
0.01123 0.546611365599792 0.372345616997087 3.99597572440521 0.0206048425234633 0.60318182867452 0.0112199999999999
0.01124 0.534678507347754 0.23074789816169 4.01739438970871 0.020754211793133 0.601154697645718 0.01123
0.01125 0.529143199696967 0.319319857517227 4.04515260803526 0.0236957688447463 0.593190366392366 0.01124
0.01126 0.459644945224743 0.287248767467177 3.90343427689087 0.019831514746304 0.576092678564721 0.0112500000000001
0.01127 0.497722964454013 0.27452324434539 4.04692426879724 0.0204018390806762 0.60947730531577 0.01126
0.01128 0.619407360033183 0.136368310935999 4.03228083943775 0.0230049921673506 0.587365269406769 0.01127
0.01129 0.607798819912048 0.289091906559738 3.96951532536364 0.0305058506772702 0.583729118988605 0.0112800000000001
0.0113 0.37348871140456 0.057435299072723 4.05528954765356 0.0092736970753078 0.588520667049135 0.01129
0.01131 0.53637820187194 0.341825864671344 4.08476656611364 0.0268309941814748 0.579948643664231 0.0112999999999999
0.01132 0.608888401917743 0.420306284870568 4.00277447310459 0.0360297163544738 0.594120959304769 0.01131
0.01133 0.567583316725838 0.152680502778835 4.0153737850873 0.0174196368381989 0.593041882631961 0.01132
0.01134 0.541301724059442 0.36872619355926 3.89495982128029 0.0322591843587367 0.5723398623203 0.0113300000000001
0.01135 0.623009381826919 0.27505723477535 3.89723898160436 0.0263023820162699 0.596232964098589 0.01134
0.01136 0.459935789726343 0.244419684545386 4.10785876415823 0.0176834357279518 0.600960768565187 0.01135
0.01137 0.551013638311835 0.233897275185983 3.94265292649706 0.0240852367993453 0.595833698847107 0.01136
0.01138 0.568492187914922 0.333446206745355 4.07641706242719 0.0285631426883598 0.588579855132467 0.01137
0.01139 0.512059806916422 0.382788815549508 3.93874657772482 0.0198787481480641 0.5767638303232 0.0113800000000001
0.0114 0.557797424671126 0.359320490613633 4.05385074592766 0.0261360801106467 0.61907795595771 0.01139
0.01141 0.527636530898746 0.215450872522914 4.05719501676383 0.0187886970814508 0.571643176597557 0.0114
0.01142 0.710690752632646 0.320766424000752 3.99483919989365 0.0242795588714326 0.59671975342666 0.0114100000000001
0.01143 0.449815480679885 0.336920771454906 4.02998399698977 0.0189014668130346 0.580934102554411 0.01142
0.01144 0.625353830395824 0.326198899485663 4.07031414830857 0.0252453492861209 0.600637386261828 0.01143
0.01145 0.511030360653747 0.214482827224184 4.10483665358033 0.0191410587066961 0.585451251102085 0.01144
0.01146 0.575800432915759 0.188631464516954 4.0737886332119 0.0181060711322928 0.593834377453967 0.01145
0.01147 0.298929667717591 0.288827810605054 4.13151974448968 0.0108037848801414 0.618355392667783 0.0114600000000001
0.01148 0.500267060865669 0.148547709926301 4.07485215084988 0.0211939083370209 0.606508690391073 0.01147
0.01149 0.569985234566833 0.389458720892358 4.11560613549136 0.033008566411679 0.599489081753893 0.01148
0.0115 0.511042456847185 0.290853906578279 4.0016964533274 0.017549986891008 0.580822541286702 0.0114900000000001
0.01151 0.492564576061797 0.246147162042774 3.97953633376827 0.0172101759432776 0.601510344312607 0.0115
0.01152 0.50176889408137 0.252325195528376 4.09672249820128 0.0277949931558613 0.61644102832378 0.01151
0.01153 0.424714347643114 0.256954016687207 4.08130868074891 0.026750073799583 0.594805892989054 0.01152
0.01154 0.484759012072995 0.372089682895014 4.11312878606908 0.0307545113216691 0.600404352188992 0.01153
0.01155 0.484105993942433 0.165048056585283 4.09778348924843 0.0120908435907099 0.587320753577888 0.0115400000000001
0.01156 0.428053449629038 0.290111394542126 4.08178941208966 0.0224134085788523 0.594829904947134 0.01155
0.01157 0.615090400203758 0.334572324855429 4.01112697820123 0.0243132485460465 0.614964825318786 0.01156
0.01158 0.654714452248955 0.190767088406219 4.11543409881324 0.0182600678950666 0.594452059143261 0.0115700000000001
0.01159 0.747675262999412 0.483141001586208 4.08592832684336 0.0348299771538608 0.58888110287113 0.01158
0.0116 0.427876721749136 0.237383231044757 4.10110646903864 0.0147001249994158 0.605930300643156 0.0115899999999999
0.01161 0.481289022065593 0.202146389661034 4.01695818658239 0.0187161570955387 0.596365422463562 0.0116
0.01162 0.652539765988555 0.380317398452754 4.12672414545663 0.0267820807221488 0.597330003795987 0.01161
0.01163 0.680309513776947 0.248755811947369 4.07765794981686 0.0279948625276243 0.601374734237938 0.0116200000000001
0.01164 0.451181347680419 0.254735624996548 4.1332349904957 0.01763508183113 0.621072776037488 0.01163
0.01165 0.760251366158334 0.172769944790139 4.18833490289543 0.0292655816108554 0.597352028779118 0.01164
0.01166 0.483460129544947 0.198425602524276 4.11663825342357 0.0197349003310501 0.599239982294528 0.0116500000000001
0.01167 0.388194458145988 0.260208522030036 4.08747824900881 0.0241167873681183 0.622644779552289 0.01166
0.01168 0.481619511316986 0.28957263909459 4.13640608864007 0.0203582940632981 0.600578212585758 0.0116699999999999
0.01169 0.693675761040683 0.407554407932941 4.02631220665926 0.0282764556278265 0.584527606713182 0.01168
0.0117 0.655032718511678 0.402069352409662 4.22916732886997 0.0356167794020579 0.620200591421158 0.01169
0.01171 0.569489936919969 0.309745466919333 4.1622684622094 0.0233469854771873 0.596373434540084 0.0117000000000001
0.01172 0.449112645950284 0.395444522274495 4.10400070449434 0.0153028439664178 0.61234986817823 0.01171
0.01173 0.535748582531048 0.375951272269446 4.05344612879498 0.0266913347406755 0.602542979363765 0.01172
0.01174 0.582817765539651 0.289795857626465 4.16301732494975 0.0236552869021009 0.612203057653667 0.01173
0.01175 0.54774055359916 0.34414278198912 4.06732981572805 0.0272075874337976 0.591503824748347 0.01174
0.01176 0.73818899836492 0.380160718131152 4.1022325548009 0.0291406774430721 0.607418000891158 0.0117499999999999
0.01177 0.544771681718932 0.329236751369695 4.13994165387292 0.0178022178303079 0.609111382913887 0.01176
0.01178 0.638389540576291 0.266105703387125 4.14699504017279 0.0303285502806485 0.591560051838262 0.01177
0.01179 0.515483762337163 0.479727062518776 4.10418489879024 0.0288679756004267 0.605185077225009 0.0117800000000001
0.0118 0.500611343245095 0.188719572093123 4.16052200757929 0.0235700112399673 0.632553019134836 0.01179
0.01181 0.539882893045596 0.217387954869876 4.2877592465218 0.0208489174683752 0.633088543607161 0.0118
0.01182 0.49547019867439 0.316636198788499 4.23997278259474 0.0198282376512881 0.612932653102655 0.01181
0.01183 0.507287273130152 0.328294337851858 4.18495209545592 0.0227295044475766 0.596851076359751 0.01182
0.01184 0.444226699840392 0.209732441766359 4.27097003784147 0.0245130159864263 0.638479020711478 0.0118300000000001
0.01185 0.467869212661472 0.317632452617293 4.33783464403138 0.021212349176587 0.620304818799145 0.01184
0.01186 0.706703351058077 0.407944412899401 4.0802733624605 0.0321947182401103 0.60488227916631 0.01185
0.01187 0.549768475262612 0.193236307354126 4.10993621687094 0.0223700203030397 0.625953297745832 0.0118600000000001
0.01188 0.708803654728531 0.299563981455033 4.30024619981696 0.0213080160399962 0.629594629643728 0.01187
0.01189 0.629526791215514 0.396558928103969 4.23969814046751 0.0321217951572271 0.59471028631004 0.01188
0.0119 0.467128789775253 0.253119263615522 4.25827807124604 0.0121033863365114 0.618824117036575 0.01189
0.01191 0.628859329550966 0.474309419043987 4.11820150187315 0.0365061403337505 0.611993066190896 0.0119
0.01192 0.672194874968109 0.326204534852558 4.24033085400415 0.0326285882562958 0.608698328947291 0.0119100000000001
0.01193 0.606432517594794 0.237368020368292 4.1812583007907 0.0268920226783304 0.627422672439822 0.01192
0.01194 0.515802009146279 0.405902096293696 4.23228412527502 0.0225309262561033 0.613190760936343 0.01193
0.01195 0.595777804313641 0.334479076517005 4.1866528383889 0.0297099151216393 0.610406919567519 0.0119400000000001
0.01196 0.542739803259602 0.372590856056856 4.1700059980112 0.0310759714769335 0.640847111705608 0.01195
0.01197 0.659035466734889 0.163714678457209 4.27456743070635 0.0212121501265224 0.619011407245836 0.0119599999999999
0.01198 0.248993753244761 0.406851755866205 4.26438495621159 0.0189648403185042 0.612845443347066 0.01197
0.01199 0.595926214012794 0.34825491985909 4.20690095746443 0.0326977307889793 0.627642242249433 0.01198
0.012 0.707295013610038 0.230604311903657 4.34566717813972 0.0200413428096763 0.634826621463476 0.0119900000000001
0.01201 0.454599234660126 0.25457829878322 4.3112324137565 0.019432440528721 0.617827773707412 0.012
0.01202 0.615405396082627 0.374237482677577 4.17816316144977 0.023062347346017 0.623703124180147 0.01201
0.01203 0.505331151046249 0.447235840850413 4.21777989405127 0.0292756988581118 0.614804559708153 0.0120200000000001
0.01204 0.497508121178881 0.315828231199373 4.29130853918409 0.0218019776595107 0.622871020520675 0.01203
0.01205 0.495123437737656 0.215732499841959 4.30931331077885 0.025952322369793 0.630256683026125 0.0120399999999999
0.01206 0.82408483677789 0.413572223791457 4.20801291409408 0.0329246241113353 0.621343256022441 0.01205
0.01207 0.479826152660562 0.233494587008932 4.36931368754838 0.0151934022569649 0.652021656192986 0.01206
0.01208 0.644314735848876 0.375706015915392 4.28515262836718 0.0301107661756683 0.61557873090821 0.0120700000000001
0.01209 0.542074618029083 0.324641622970539 4.2793152329884 0.0288646864198344 0.63458551695178 0.01208
0.0121 0.559459041529426 0.224447761770023 4.28703376214346 0.0218558231807352 0.635921302261585 0.01209
0.01211 0.538629437899147 0.25387517745791 4.25316149017854 0.0208633318451569 0.642117437038449 0.0121
0.01212 0.565132677198816 0.339836240135329 4.25187934063831 0.0268311009167381 0.618010116440468 0.01211
0.01213 0.665393613750746 0.322472246435783 4.27712517080141 0.0249500979937711 0.632795683972825 0.0121200000000001
0.01214 0.595974416406851 0.581183395359744 4.2693857200859 0.03630564708281 0.62539278510053 0.01213
0.01215 0.476155481232999 0.289001253010315 4.32695669301118 0.0258163988108884 0.620684208809614 0.01214
0.01216 0.570943442718186 0.3210741630503 4.16694850203674 0.0190328854767426 0.625093018954896 0.0121500000000001
0.01217 0.51736991347784 0.443750947049405 4.35304586379779 0.0316765173813623 0.633107141897737 0.01216
0.01218 0.627947970786125 0.231457141615161 4.28983599701717 0.0207967999138971 0.631707302474861 0.01217
0.01219 0.529718607034053 0.216898088534802 4.34571677087309 0.027546158242494 0.648393030209708 0.01218
0.0122 0.62350642446034 0.325352533901778 4.3228092126454 0.0238666434930417 0.624420303719664 0.01219
0.01221 0.622641748816652 0.371267056393938 4.2743449014801 0.0308661213595841 0.627016076745344 0.0122000000000001
0.01222 0.528492984477167 0.507982769509249 4.39399185271297 0.0293121020509938 0.644560920507524 0.01221
0.01223 0.671503354588516 0.314897899401927 4.32975920261252 0.031323457947618 0.620869688533985 0.01222
0.01224 0.575149546984674 0.377923892136133 4.36034845136166 0.023373734307185 0.639444312139345 0.0122300000000001
0.01225 0.658891477382346 0.412872639716751 4.31802004849087 0.0334477640851443 0.640615755116701 0.01224
0.01226 0.530735048408401 0.319227680864057 4.46664927782491 0.022790266491404 0.649010563144666 0.01225
0.01227 0.439794259758939 0.264460302354265 4.49608746493507 0.020876571275593 0.619241197881008 0.01226
0.01228 0.593456814254429 0.431692011708386 4.33763681376003 0.0318282029202618 0.640043606180223 0.01227
0.01229 0.507449705774747 0.411522470177991 4.40527606449582 0.034255307376581 0.645227616559862 0.0122800000000001
0.0123 0.543712388285395 0.266945583219917 4.22285807062183 0.0237865859587775 0.635550714505385 0.01229
0.01231 0.767303881735339 0.356409298098666 4.4111641215484 0.0282817165375255 0.644610149105073 0.0123
0.01232 0.587200925578252 0.309091089059783 4.32234132253925 0.0266287583588098 0.612691109122058 0.0123100000000001
0.01233 0.456352020191915 0.332972154510023 4.33917846139963 0.0193929619454605 0.659418518150588 0.01232
0.01234 0.89161984296065 0.383403653547407 4.50090591323611 0.0351921157669886 0.636826508608553 0.01233
0.01235 0.550530372605269 0.405468201561251 4.30478479126048 0.0290673594601243 0.646158999574557 0.01234
0.01236 0.579394488131992 0.410570243856293 4.41955424901756 0.0229808896983011 0.641108018529436 0.01235
0.01237 0.604000019939711 0.466778417538159 4.32303062024716 0.0269377439012025 0.647542566668935 0.0123600000000001
0.01238 0.654564603386774 0.256832380099079 4.39622104414387 0.0293837873059783 0.650772349093054 0.01237
0.01239 0.574126395258289 0.244170685884365 4.3107889010299 0.0249644754257537 0.627502716660793 0.01238
0.0124 0.471831626397815 0.431455586107499 4.2642547409434 0.0217266133125279 0.624868340026681 0.0123900000000001
0.01241 0.652380743755145 0.433794767308722 4.31083189193979 0.0322367622278251 0.661125650349521 0.0124
0.01242 0.545659660770615 0.325510961099203 4.39883187106074 0.0239745048566727 0.639501401617316 0.0124099999999999
0.01243 0.439517678331739 0.315227997702315 4.36251330903625 0.022813533707003 0.653589653992711 0.01242
0.01244 0.625245737206323 0.286291232956761 4.44039515194108 0.029525043035483 0.660841577236594 0.01243
0.01245 0.652527374715881 0.389061410476688 4.4157934357894 0.0359887206657242 0.642141497106546 0.0124400000000001
0.01246 0.535803715480034 0.266484645305515 4.47559890843915 0.0248894773482146 0.644807518954927 0.01245
0.01247 0.656995627999353 0.252791447467255 4.38801076018925 0.0272882130324992 0.608390240874975 0.01246
0.01248 0.49751183123451 0.480557418477362 4.34354622878838 0.0242642263055903 0.652794055119905 0.0124700000000001
0.01249 0.375388744934327 0.174244644181262 4.42234640510112 0.0143998366928861 0.650313994219599 0.01248
0.0125 0.426772469140481 0.211549959092522 4.509562656925 0.0152913108564789 0.645311359692319 0.0124899999999999
0.01251 0.673758256310912 0.431743975727541 4.41224079180088 0.0373367661791245 0.646002003651316 0.0125
0.01252 0.607696688635207 0.416635900222318 4.43555055811595 0.0258261511477412 0.66071691688931 0.01251
0.01253 0.466665007487275 0.398874798327461 4.35750969380939 0.0285697722236237 0.642128460509548 0.0125200000000001
0.01254 0.6095555301196 0.291970812730364 4.34569208655526 0.019507443476812 0.645427707718715 0.01253
0.01255 0.538897711791543 0.262187740643827 4.4642977313033 0.0352568180524887 0.638378767382894 0.01254
0.01256 0.697404598883922 0.437608594022755 4.29990716499417 0.0386804341248813 0.633817964775198 0.01255
0.01257 0.45700553077915 0.289810030581282 4.45850763710308 0.0155030336070245 0.650881140138072 0.01256
0.01258 0.492286027724319 0.277668001794564 4.5395042431197 0.0229350533958291 0.658583588796031 0.0125700000000001
0.01259 0.398946548461132 0.364453873055399 4.4020878327497 0.0227596931448021 0.654569419753746 0.01258
0.0126 0.427283327847376 0.161065046112314 4.46962697752237 0.0122671482290149 0.651939062682427 0.01259
0.01261 0.613431731228779 0.211163508532073 4.47649891861874 0.02554768364342 0.664321679359209 0.0126000000000001
0.01262 0.661987568575863 0.242574559351629 4.58135144172954 0.0290983750263602 0.661984624441577 0.01261
0.01263 0.409072908169789 0.360129713078167 4.49732047171428 0.0227916169402768 0.63488837096717 0.01262
0.01264 0.646584678512302 0.326099776501768 4.43559532398675 0.0241486415068137 0.665592414227579 0.01263
0.01265 0.458238144249112 0.240221769629035 4.52745274815745 0.0166621070559519 0.642359282502509 0.01264
0.01266 0.680381809871698 0.299734999796291 4.37538314055836 0.0295974455615559 0.657452144882135 0.0126500000000001
0.01267 0.651588446645473 0.349936568329395 4.58432211030558 0.0304603162932538 0.686561485870407 0.01266
0.01268 0.453014740662039 0.389593253828958 4.58072659763797 0.022602892673144 0.639801228177947 0.01267
0.01269 0.736283365306892 0.250162569990461 4.4698234746432 0.0291230571409912 0.652233619205206 0.0126800000000001
0.0127 0.516250943575328 0.268210386865429 4.5061015378845 0.0239243437912395 0.672597080400521 0.01269
0.01271 0.632713417521498 0.291184211609486 4.51423075057974 0.0192544767039246 0.669994453558656 0.0127
0.01272 0.530374408616402 0.262123740871106 4.51679044640599 0.0196459933750692 0.650097242095817 0.01271
0.01273 0.588742258444034 0.350641119967511 4.53112733515685 0.0268313948327294 0.68050847970162 0.01272
0.01274 0.727721492277344 0.27238441142145 4.59281974848259 0.0317068527027603 0.675651592096908 0.0127300000000001
0.01275 0.475522740342611 0.394362225437893 4.50613029878189 0.0313773959216216 0.649790493563522 0.01274
0.01276 0.449187576720031 0.196031986137506 4.53860231280619 0.0201097902437273 0.667398082500499 0.01275
0.01277 0.457976632392906 0.316063740104971 4.55585297671831 0.0134710370487777 0.647102318438465 0.0127600000000001
0.01278 0.623730070993625 0.237525521916075 4.50786161205552 0.028133795141435 0.667545574075688 0.01277
0.01279 0.457504320232476 0.329048810102242 4.6122484112715 0.0234693915033895 0.684362974998451 0.0127799999999999
0.0128 0.525911295108261 0.363283378685 4.4840092720817 0.0222026749106704 0.664055345087871 0.01279
0.01281 0.555689331782395 0.0563568244421946 4.49628792829764 0.0167947194668067 0.663167262781945 0.0128
0.01282 0.551678082362107 0.303026114850279 4.6130783754551 0.0246715135762154 0.674852856123328 0.0128100000000001
0.01283 0.59426360492193 0.470145337627906 4.57913261828306 0.0336501697259124 0.673574497960025 0.01282
0.01284 0.648934135574041 0.363798723129502 4.54532990533982 0.0250260091294751 0.676955955955353 0.01283
0.01285 0.457917661827513 0.526713682016728 4.59503933932165 0.0234867431784463 0.671152015221019 0.0128400000000001
0.01286 0.67045722175991 0.315601757216237 4.5507834164286 0.0291228204661288 0.648826809038618 0.01285
0.01287 0.638375285109559 0.356483334648011 4.51927222756932 0.0269641358399301 0.659819091747895 0.0128599999999999
0.01288 0.619572387408444 0.473707086808041 4.51720388046881 0.0324182473576189 0.659952444912541 0.01287
0.01289 0.529563210453094 0.429953593911401 4.55729730289698 0.0302457955698846 0.679842928108862 0.01288
0.0129 0.6856996000263 0.416895636848395 4.52880058350293 0.029824992103782 0.658580348632422 0.0128900000000001
0.01291 0.682924635743241 0.47853006764806 4.49498956356448 0.0362649359902749 0.673009401517995 0.0129
0.01292 0.647781992232369 0.423243596068658 4.66977715117694 0.0254554207169204 0.703281219962622 0.01291
0.01293 0.73934121137955 0.318572068833423 4.61030597202832 0.0290429743335924 0.654312312468171 0.01292
0.01294 0.609779526267414 0.442204132615763 4.5212430099086 0.0256962117203681 0.668330384140337 0.01293
0.01295 0.674537805096369 0.673675887778649 4.60094571166267 0.0444610030393472 0.683312343817737 0.0129400000000001
0.01296 0.617280726229238 0.35648864387285 4.52083211101132 0.0269050899640574 0.672232840560136 0.01295
0.01297 0.662768368908615 0.490009747322026 4.57559928966475 0.0339827965931087 0.655985912791598 0.01296
0.01298 0.599462060416807 0.341115810742226 4.57868194381823 0.0279555818975765 0.654796014070014 0.0129700000000001
0.01299 0.622127767238941 0.444239897399489 4.5036619675764 0.0244812876877512 0.673294658247565 0.01298
0.013 0.688674399583788 0.462088211358203 4.49457951186691 0.0259718910024937 0.68314556125981 0.01299
0.01301 0.598698271548725 0.392521222327207 4.5928014817127 0.0333827997641558 0.673785989336367 0.013
0.01302 0.763740506711472 0.389756304194199 4.64554071335928 0.0281920423350532 0.677633693438247 0.01301
0.01303 0.590075526283695 0.425952856770512 4.70200617167062 0.0229820897810144 0.675868528780944 0.0130200000000001
0.01304 0.761054727407844 0.303099494866346 4.48117785600714 0.0319021171826046 0.664374996980818 0.01303
0.01305 0.606484430624698 0.493025302607738 4.58695990791761 0.0334860792188765 0.680663159430394 0.01304
0.01306 0.587712531095341 0.251995290310893 4.58036402327406 0.0234651660525798 0.663793847875194 0.0130500000000001
0.01307 0.636895100239474 0.3021978842993 4.63620386465131 0.0290574849960276 0.689361932654817 0.01306
0.01308 0.540666881819591 0.402221204800652 4.6122266494796 0.0308642297022803 0.671007658658741 0.01307
0.01309 0.695684236101226 0.540767096903619 4.61147549999174 0.0278354672019682 0.690116966695207 0.01308
0.0131 0.668685209794902 0.463411394763394 4.73019072600455 0.034229327608404 0.677601819783441 0.01309
0.01311 0.670999233855673 0.346222692052501 4.46712182948422 0.0314126730744008 0.649612586728088 0.0131000000000001
0.01312 0.457004698806102 0.483046311599614 4.64000032124668 0.0223447510457592 0.695810629117508 0.01311
0.01313 0.468911834912167 0.231727929931627 4.64376251966753 0.0233986454931983 0.661956674231153 0.01312
0.01314 0.75449914799092 0.320600496927933 4.6120934371736 0.0303465097878729 0.694704064572348 0.0131300000000001
0.01315 0.523146364470567 0.380476135259669 4.65808956943067 0.0242072247735034 0.669470392324304 0.01314
0.01316 0.691538545787606 0.463512614036349 4.65241071224393 0.0250326879702922 0.67374256428022 0.0131499999999999
0.01317 0.678197896427532 0.49435775172813 4.59258211165377 0.0349432164381527 0.680136506877276 0.01316
0.01318 0.613635172976487 0.422763011490858 4.68235275261037 0.0264414992300693 0.703311226303607 0.01317
0.01319 0.666391765447793 0.306449926478715 4.65405673175345 0.0308950195515937 0.662027388493975 0.0131800000000001
0.0132 0.710759867489247 0.462295125546978 4.66327475147542 0.037564381142966 0.67918618853971 0.01319
0.01321 0.462949250886412 0.310725705690322 4.76832775173551 0.0250398523294904 0.710911488034781 0.0132
0.01322 0.674303339886027 0.236457147631135 4.729375050395 0.0260690967023772 0.703382185407431 0.0132100000000001
0.01323 0.611044091469281 0.506520020200282 4.59663595295168 0.0324610035439059 0.661869297715439 0.01322
0.01324 0.447594328396135 0.270556721775285 4.74562457296162 0.0222738128621159 0.712204193302538 0.0132299999999999
0.01325 0.350311736572689 0.241189977163802 4.61551509074596 0.019971611970792 0.697130589181872 0.01324
0.01326 0.657297101824036 0.543563252367939 4.64087231179522 0.0304884943257663 0.686410893740054 0.01325
0.01327 0.733393341804098 0.496425908374474 4.74196435079207 0.0334889323170601 0.676127605540231 0.0132600000000001
0.01328 0.572202575101874 0.296816045354512 4.63423157579871 0.0224138805118057 0.674349757067936 0.01327
0.01329 0.544983139119337 0.490844049392509 4.76311911902572 0.0268311208603437 0.699828431972772 0.01328
0.0133 0.48783090617636 0.179508466660424 4.65423261739994 0.0097295686685373 0.679846287205291 0.01329
0.01331 0.605329801510161 0.369929002813203 4.82601076309447 0.0288858195081842 0.705524763803754 0.0133
0.01332 0.543007067473561 0.388863020449097 4.69180331546706 0.0282383465916343 0.670741396157262 0.0133100000000001
0.01333 0.468229103699454 0.427454722796631 4.61736119115508 0.0343449724379646 0.677679549409274 0.01332
0.01334 0.626774748101273 0.420076706761237 4.8147332345207 0.0277609676356883 0.732403352234912 0.01333
0.01335 0.485442411347923 0.306446261646284 4.80014496211088 0.0216494445017745 0.669577752610688 0.0133400000000001
0.01336 0.655283858853364 0.359241468007504 4.75712537596662 0.0272720879980397 0.699436543064989 0.01335
0.01337 0.595732303979245 0.200238914860561 4.67613706369092 0.0200929463864769 0.688070161064776 0.01336
0.01338 0.653996634601944 0.329854956712881 4.73621342156741 0.0272293625487832 0.680468069010362 0.01337
0.01339 0.765436186592187 0.354648925789719 4.71462449207464 0.0284562148354876 0.694005317836561 0.01338
0.0134 0.675541813360425 0.398691762989536 4.78661441753261 0.0271241166797176 0.715090694471731 0.0133900000000001
0.01341 0.57598737557364 0.408495332663896 4.71623207362358 0.0249954414858641 0.704468902186647 0.0134
0.01342 0.535611115349645 0.287070731799513 4.71740289952471 0.0236517891763506 0.676416699165185 0.01341
0.01343 0.627275173864276 0.421070520184041 4.81763541608476 0.0236119403976123 0.69462024727565 0.0134200000000001
0.01344 0.610894689478637 0.396018953817614 4.79712539612154 0.0298031631238649 0.710963056191568 0.01343
0.01345 0.489555155217415 0.47474323960797 4.84242965378919 0.0297420103223782 0.702775279328086 0.01344
0.01346 0.642301130420435 0.388584845677647 4.70520345579704 0.0298050914540604 0.662538566894335 0.01345
0.01347 0.559759652552723 0.288720133026113 4.62481855729551 0.019710748052597 0.691035562877677 0.01346
0.01348 0.526244210219339 0.435033428323829 4.82009933861597 0.0272189914858003 0.69690841553806 0.0134700000000001
0.01349 0.452692268806556 0.3631749868251 4.72951458256539 0.0188998765590231 0.704492158804525 0.01348
0.0135 0.63309571206734 0.419488440408065 4.78238671940918 0.0353622744566506 0.709601311402854 0.01349
0.01351 0.684432959302065 0.438256235442819 4.88128993844402 0.0279663052709323 0.701739216771564 0.0135000000000001
0.01352 0.601842715508173 0.340492062629488 4.85069077423163 0.0235783909984911 0.706108044276831 0.01351
0.01353 0.445800491522058 0.419707604209083 4.8117733699598 0.0254179496158567 0.699999087534429 0.01352
0.01354 0.668086882817263 0.374064035092047 4.77942906571904 0.0263966745372427 0.704318781285456 0.01353
0.01355 0.519781879957727 0.592761169392526 4.86077707976969 0.0380230855541673 0.70611459871501 0.01354
0.01356 0.785675781037204 0.439423679906832 4.7507357094279 0.0359133107840659 0.68941166630875 0.0135500000000001
0.01357 0.577448473523122 0.351473696102894 4.82172067361356 0.0187257201964451 0.728355178779933 0.01356
0.01358 0.423683306847915 0.434090671757903 4.81260155808913 0.0250276684506384 0.717121774141873 0.01357
0.01359 0.547952363057104 0.259940092850833 4.92225145285542 0.0234180838863358 0.710297791273914 0.0135800000000001
0.0136 0.647169308697683 0.495786861554125 4.756334519642 0.0344896777592431 0.685238992510764 0.01359
0.01361 0.490315168505502 0.461749754966288 4.83905853659047 0.0288534782220238 0.722191461320003 0.0136000000000001
0.01362 0.71443054058334 0.376622451106728 4.77895291926287 0.028718835376336 0.711677730026398 0.01361
0.01363 0.729225761940278 0.475033599554864 4.82711327093037 0.0367233092169526 0.701007196513718 0.01362
0.01364 0.57478217198627 0.345383276330779 4.86829557617954 0.0282192302114573 0.696578075980511 0.0136300000000001
0.01365 0.621469372244073 0.332353381159645 4.81623285592137 0.0228870770982237 0.708608213500395 0.01364
0.01366 0.666300586424889 0.433272296161955 4.79693708732729 0.0333675610511969 0.684090816590247 0.01365
0.01367 0.705712022954919 0.543062181350087 4.73646513267287 0.0373775663865414 0.689915696953881 0.0136600000000001
0.01368 0.613194983295621 0.417042218205501 4.83462824171046 0.0217306563505455 0.705556204000357 0.01367
0.01369 0.691377194751291 0.315752384565581 4.75278701401128 0.0339702633641566 0.695063505294456 0.0136800000000001
0.0137 0.627597433092852 0.467694344784723 4.85590217343732 0.0305741787809445 0.724984545925655 0.01369
0.01371 0.531626114894912 0.321335739200988 4.81772341965461 0.0233106517263096 0.697343650268201 0.0137
0.01372 0.608988219748176 0.330711485230191 4.82638965805157 0.0286322954669718 0.711708436514144 0.0137100000000001
0.01373 0.635015375532583 0.510644554430235 4.82912142290026 0.0315667330637525 0.707537875917226 0.01372
0.01374 0.557389796761831 0.324850305333995 4.86222018080625 0.0263379523629884 0.724128033271885 0.01373
0.01375 0.650995514308509 0.432782493697472 4.85872533719468 0.0268385721665316 0.692891294765482 0.01374
0.01376 0.754168351583947 0.452290686791481 4.76913096842578 0.0405043593565503 0.690921824207661 0.01375
0.01377 0.502346176276812 0.537510292787052 4.88367496398511 0.0294250832546541 0.733441719618258 0.0137600000000001
0.01378 0.776368565191846 0.448655845302634 4.85291278060849 0.0405808650139945 0.69394988665412 0.01377
0.01379 0.424535363130158 0.295742991026054 4.91576263095036 0.019671029489682 0.711655292965207 0.01378
0.0138 0.565259595013626 0.370750974509897 4.86913761622122 0.0238012759435129 0.717852554254573 0.0137900000000001
0.01381 0.768023796425578 0.372741329401259 4.8015610451397 0.0346908377178333 0.718346096141062 0.0138
0.01382 0.74020073771163 0.595524156423423 4.92263122284691 0.0285814038813145 0.705398313431346 0.01381
0.01383 0.669716568462597 0.404388719707427 4.83115409738835 0.0352905056961537 0.713391402998649 0.01382
0.01384 0.731911018309548 0.461975621350856 4.83520606050443 0.0365176944179572 0.723882013251912 0.01383
0.01385 0.824285417081818 0.493021834046977 4.81641342961039 0.0341223418698038 0.688117465840303 0.0138400000000001
0.01386 0.540346934119694 0.430897055348461 4.80513264183448 0.0263727781492799 0.723938701655401 0.01385
0.01387 0.808796225762154 0.315120328741245 4.99389025813894 0.0345058534643196 0.732638877287318 0.01386
0.01388 0.708773159599967 0.39853535979442 4.87049446008526 0.0376570530240853 0.695864387972898 0.0138700000000001
0.01389 0.430419366130129 0.504539311818101 4.91494598196937 0.0233923612942556 0.720498139643604 0.01388
0.0139 0.87066448107157 0.404992894130159 4.85914445384269 0.0373057165265303 0.704568677390009 0.01389
0.01391 0.592972331450449 0.377872803415137 4.92632856480969 0.0256411710105691 0.725463424580118 0.0139
0.01392 0.516810367793474 0.297774719380573 4.94565915341251 0.0190795813829788 0.720101632796958 0.01391
0.01393 0.487269962343589 0.447267694536962 4.84056660418133 0.0290763502339498 0.717666760878207 0.0139200000000001
0.01394 0.62945674324565 0.435069535042901 4.91943038113772 0.0392120411152701 0.727998609280002 0.01393
0.01395 0.469680795291151 0.311102003053116 4.9094698755582 0.0162389353955155 0.736627853734352 0.01394
0.01396 0.60336438203937 0.306093945213891 4.99817424881753 0.023890080731722 0.726267519577601 0.0139500000000001
0.01397 0.453423518050974 0.58921827103978 4.95934510466347 0.0404936481567949 0.727432545578036 0.01396
0.01398 0.701433740034716 0.410984838474254 4.96464300665263 0.029413904175268 0.729778871812085 0.0139699999999999
0.01399 0.648712863373795 0.294560115824349 4.99021070030496 0.0285216620158245 0.72688606590788 0.01398
0.014 0.510909979664193 0.477109783808248 4.90123251233295 0.0245710444003748 0.705715226208661 0.01399
0.01401 0.623558113909077 0.417286185268551 4.98886905265192 0.036634702142528 0.73913943945314 0.0140000000000001
0.01402 0.660141537800555 0.547630666117723 5.08220853206899 0.0400423148452703 0.719615239910829 0.01401
0.01403 0.475281385694909 0.273972491613651 4.92052567336748 0.0220014845562378 0.727853122225761 0.01402
0.01404 0.583274634668787 0.38576738896958 5.03876186102498 0.0310968711012046 0.737321805120091 0.0140300000000001
0.01405 0.691848909065572 0.523026259484013 5.01433567718164 0.0347001473087512 0.720681298741264 0.01404
0.01406 0.629091689586942 0.337345916631107 5.08542571712484 0.0297579809689708 0.741207810150042 0.0140500000000001
0.01407 0.385466067855478 0.337600210193694 4.93721760294352 0.0162860580098651 0.715152783428776 0.01406
0.01408 0.599491497166377 0.321477676278463 4.95698638031808 0.0233930969631492 0.724068396344011 0.01407
0.01409 0.678844714946865 0.55900033129192 4.98983883771532 0.0353233406508597 0.739119216065139 0.0140800000000001
0.0141 0.553333401702534 0.172338505717704 4.9761923809148 0.019473304459757 0.739235280540103 0.01409
0.01411 0.632850227440519 0.230735767871234 5.08526129543706 0.0197686569616934 0.74948145406182 0.0141
0.01412 0.410365782453418 0.44926365134256 4.95725291067757 0.0234879325352656 0.738072557796102 0.01411
0.01413 0.599975333020731 0.396592006023396 5.09330701511463 0.0237634344134643 0.740151172164785 0.01412
0.01414 0.650127055317404 0.464245647865413 4.9457676307876 0.0234081085776075 0.705376504585794 0.0141300000000001
0.01415 0.488126865663568 0.424413005374209 4.95631428195649 0.0297655887451866 0.755303808765923 0.01414
0.01416 0.607346519148046 0.356044404693557 5.137234562053 0.0287365990943959 0.735489781694775 0.01415
0.01417 0.440366415239278 0.413167483133622 4.88889512858723 0.0167362536817589 0.722204358669522 0.0141600000000001
0.01418 0.63878434449077 0.336280280597854 5.11084507665829 0.035258874655214 0.752920739963475 0.01417
0.01419 0.550791554882664 0.307942195908179 5.0561404054919 0.0229854750607967 0.727475034517999 0.01418
0.0142 0.524042738008457 0.438277459684838 4.95658065444816 0.0259693860334815 0.754971074135668 0.01419
0.01421 0.503551634946965 0.329881157190788 5.08363969889561 0.0253270347716086 0.732978278893416 0.0142
0.01422 0.595112868662378 0.31324706993214 5.05219669159444 0.0188948178689279 0.740622499036414 0.0142100000000001
0.01423 0.537870163516129 0.400206158939192 5.03427101685911 0.030477336451093 0.727345417824191 0.01422
0.01424 0.474668259638814 0.44106794807399 5.04434918831804 0.0202925130471617 0.754399412658039 0.01423
0.01425 0.601174590546787 0.520906473833501 5.07916310895008 0.0286095600746602 0.757145870618141 0.0142400000000001
0.01426 0.573760177752335 0.41670892507939 5.06890424431399 0.0307800378305485 0.722707453321891 0.01425
0.01427 0.664751099013043 0.203717568501729 5.098808748209 0.0185127351397998 0.741141278578001 0.01426
0.01428 0.613875571592091 0.404561555409539 5.09990548580291 0.0264579907904614 0.738905676197253 0.01427
0.01429 0.388004173278832 0.534391329279905 4.95304604408331 0.0179417313552232 0.753145361463422 0.01428
0.0143 0.625375290095933 0.272406969761649 5.07896425154282 0.0265235594327025 0.769660127772645 0.0142900000000001
0.01431 0.521704112774441 0.429129229838049 5.08910026923529 0.026795299620528 0.747792760767495 0.0143
0.01432 0.542144577914571 0.323870935518227 5.19290806683166 0.0232268353325222 0.754964368842874 0.01431
0.01433 0.543517830974135 0.25929814130203 5.15641952155952 0.0234286629075098 0.733497382457908 0.0143200000000001
0.01434 0.483518684400608 0.397815550986304 5.06287934572326 0.0284088822548594 0.742916583034077 0.01433
0.01435 0.583104113792307 0.339083567987733 5.11535189678594 0.031251000490671 0.735433752996236 0.0143399999999999
0.01436 0.486423833960374 0.607309767783761 4.99558338664345 0.0309645902037764 0.748603809977966 0.01435
0.01437 0.603741161628708 0.363658582812769 5.12159038100807 0.0333195801276506 0.74624086834666 0.01436
0.01438 0.687211881026476 0.372426591972012 5.09328863083255 0.029929603348918 0.731225334683954 0.0143700000000001
0.01439 0.610330135078125 0.370452964099702 5.1268019142091 0.0286824581891268 0.76855383053217 0.01438
0.0144 0.557239916740426 0.37547218213799 5.09260187701378 0.0213542266970737 0.742470340399654 0.01439
0.01441 0.488872227764654 0.418537409485298 5.10083247389427 0.026557923048309 0.762575841991787 0.0144000000000001
0.01442 0.577960970650009 0.304925389372351 5.05975503223948 0.023393182232035 0.758217455664196 0.01441
0.01443 0.754325986174362 0.297564439087426 5.123967958158 0.0269870439006624 0.711147375258006 0.0144199999999999
0.01444 0.650602899076487 0.452125690458989 4.96079885848273 0.034830677791593 0.745627153902658 0.01443
0.01445 0.67427525131195 0.391712281544817 5.23153781076066 0.0283002950715221 0.775643145042749 0.01444
0.01446 0.587262492119433 0.285841261314682 5.22686679597317 0.0251833650300473 0.725617369755682 0.0144500000000001
0.01447 0.742220549035822 0.394219692523619 5.02907702640472 0.0290741062247452 0.74964914074281 0.01446
0.01448 0.758854781023534 0.49469079663002 5.12017120199151 0.0344840929496643 0.740599341047833 0.01447
0.01449 0.662014756104554 0.256048131241974 5.07316067780433 0.0254707964328021 0.744503158096071 0.01448
0.0145 0.578678075201792 0.394152837426396 5.08563962379168 0.0254761322430939 0.762631132828401 0.01449
0.01451 0.580358172605267 0.364052371943036 5.25194914664814 0.0252451980113621 0.758555738973559 0.0145000000000001
0.01452 0.501325250905927 0.578526232305416 5.04834264214286 0.0252442833384238 0.737017450465955 0.01451
0.01453 0.540536881956109 0.443065221035648 4.95224169144356 0.0217734179223428 0.764280987022889 0.01452
0.01454 0.60951025905549 0.483322417422895 5.23807310329578 0.0360826355245932 0.754028425182064 0.0145300000000001
0.01455 0.662244205312103 0.473971198864653 5.16250887005907 0.0330465945478384 0.746822404519007 0.01454
0.01456 0.614623294874241 0.565206133524886 5.12684100483094 0.0279916466507549 0.769865248608155 0.01455
0.01457 0.588003154429679 0.381964082875542 5.09865323383023 0.0228462454077868 0.762644174115672 0.01456
0.01458 0.60382259198282 0.407165704969835 5.19324266222259 0.0287717682925901 0.745350569588003 0.01457
0.01459 0.770972212825317 0.386228052288583 5.1891447744958 0.0348875188430433 0.755978290666668 0.0145800000000001
0.0146 0.736485015768103 0.63477920308218 5.13841085198211 0.0358773952611321 0.756250507082915 0.01459
0.01461 0.559916080080929 0.456846651059456 5.22257640261544 0.0221415877299247 0.759794258250314 0.0146
0.01462 0.669065556232593 0.486313491416514 5.1080520168686 0.0362279298445755 0.746454958225038 0.0146100000000001
0.01463 0.573785760256214 0.498875478339238 5.23356001318402 0.024463777970834 0.763401252527351 0.01462
0.01464 0.503149889732012 0.409522746933109 5.19441106555735 0.0260633360882361 0.754992377089515 0.01463
0.01465 0.694221880991185 0.466250000585803 5.12096519732445 0.0284246687348755 0.740718283086258 0.01464
0.01466 0.474620706130234 0.353690573673727 5.24735191111047 0.0298484788958892 0.775896798433176 0.01465
0.01467 0.62148588207603 0.600734267526224 5.2051871747113 0.0383351484560411 0.763353520086317 0.0146600000000001
0.01468 0.606590619945768 0.367078227869732 5.30273782073209 0.0213123888927597 0.770046679179043 0.01467
0.01469 0.706754465463024 0.426384930238203 5.22014216863558 0.0327817951849836 0.76589897537271 0.01468
0.0147 0.681150288009553 0.36798051222016 5.23435147904761 0.0282369811545139 0.758108381651125 0.0146900000000001
0.01471 0.627905287572932 0.309173633167937 5.23535757386159 0.0289837751487435 0.749189058263651 0.0147
0.01472 0.595625955778069 0.35730440951603 5.23870335842612 0.02107369985761 0.768314431051708 0.0147099999999999
0.01473 0.612162298257055 0.317414265385706 5.1782687816745 0.0242469105605063 0.768453243028572 0.01472
0.01474 0.718345191725402 0.473222895700595 5.17117191807109 0.028400263931775 0.76174116327306 0.01473
0.01475 0.662037988535499 0.62256690732462 5.17922189270806 0.0416809246054392 0.771951973130314 0.0147400000000001
0.01476 0.769676366286585 0.593221096650465 5.14158580937382 0.0387609606745124 0.767412156793169 0.01475
0.01477 0.718360997803573 0.556210157316927 5.13321330374766 0.0277454514706601 0.771015343337646 0.01476
0.01478 0.57869062816455 0.739535061186976 5.2429836091495 0.0369557964874832 0.773721837133123 0.0147700000000001
0.01479 0.721843094716105 0.638911270638811 5.16173385369068 0.0414632561854101 0.757448088159518 0.01478
0.0148 0.480485622051992 0.519307617866371 5.32546459851668 0.0273500201287659 0.777176604749653 0.0147900000000001
0.01481 0.692141552740218 0.657521654230882 5.27761141655013 0.0386803696388346 0.754456475404326 0.0148
0.01482 0.534172884843962 0.49974094640568 5.28386098561421 0.0250851031430821 0.776366791284779 0.01481
0.01483 0.589814429143548 0.458402673141275 5.33228053229283 0.0300487863430958 0.77434350798967 0.0148200000000001
0.01484 0.659621377180275 0.586580066427158 5.36874579320421 0.0365185735884734 0.798897477208916 0.01483
0.01485 0.618308710984627 0.504547602334002 5.2912421135095 0.0291056184031899 0.756583031854669 0.01484
0.01486 0.595186193853815 0.527703362522214 5.23683520246872 0.0372588923221764 0.761702046117865 0.01485
0.01487 0.669612128000915 0.404715508829464 5.26904817287425 0.0217926330871986 0.770474610357029 0.01486
0.01488 0.684121959624375 0.451587895783362 5.23974210960042 0.0349976376597625 0.76035292887815 0.0148700000000001
0.01489 0.664183743616219 0.475421832803354 5.27895448051151 0.0270497966488018 0.775556586515097 0.01488
0.0149 0.499420409558405 0.435775889166024 5.36089458885117 0.0266729643906108 0.786521874533987 0.01489
0.01491 0.791481037630667 0.670822076828697 5.3149826432373 0.0404430723675166 0.781261573831713 0.0149000000000001
0.01492 0.588319897117388 0.592063378398099 5.27628600775614 0.0320216712034182 0.768320876989657 0.01491
0.01493 0.562522052518313 0.468483037518395 5.41041850644576 0.0287493011546451 0.792847833853633 0.01492
0.01494 0.654745433848178 0.584072690959442 5.28801467164631 0.0344783302812013 0.771903005578863 0.01493
0.01495 0.629102608837702 0.454465106383619 5.3050770536783 0.0362531683001572 0.776947616656358 0.01494
0.01496 0.551228627501214 0.538132666418314 5.28564518010096 0.0323574523924535 0.787230200951321 0.0149500000000001
0.01497 0.618361433207272 0.402561728298869 5.33695434993109 0.0251002367147282 0.792711190004848 0.01496
0.01498 0.722613887182779 0.497835554503844 5.29286285853413 0.0312137296228883 0.74743301215618 0.01497
0.01499 0.688233368631051 0.479947622691461 5.32819099528124 0.0274412426604527 0.7864816339318 0.0149800000000001
0.015 0.641708858037584 0.360272148447436 5.39372512014251 0.0295689064793881 0.772966603065729 0.01499
0.01501 0.643513768881428 0.459156368265796 5.21783804085813 0.025560011559925 0.772950736812384 0.015
0.01502 0.711489989674989 0.502672178067958 5.35118566623671 0.0330470763986192 0.785315177534911 0.01501
0.01503 0.755714606758305 0.33361128376428 5.41845256272218 0.0353472497782744 0.796454106769518 0.01502
0.01504 0.537135217062594 0.517721248046628 5.36213252926716 0.0292786688691922 0.790981281011674 0.0150300000000001
0.01505 0.528116656659603 0.41737810103361 5.28059370942324 0.0256139035959888 0.771205078532542 0.01504
0.01506 0.629578165211376 0.452967287414862 5.35095082913183 0.0339712431368623 0.772794064532135 0.01505
0.01507 0.741487351491351 0.422951402900813 5.42499113242142 0.0306353256509514 0.773386247584463 0.0150600000000001
0.01508 0.609588513732596 0.382101251254415 5.33284125766174 0.0232007034399852 0.781231205796026 0.01507
0.01509 0.494075788404407 0.50222334766134 5.29832274109952 0.0257096969048839 0.775597417965144 0.0150799999999999
0.0151 0.574590522476536 0.520903611353539 5.36327706185226 0.0292112650523868 0.785423865162403 0.01509
0.01511 0.505609979163843 0.429402779592121 5.36912797584541 0.0307171982531629 0.780133137650498 0.0151
0.01512 0.570229726959927 0.496525590647508 5.27348027600057 0.0346722236130865 0.767529546466589 0.0151100000000001
0.01513 0.63784075687642 0.518489554685598 5.26170758809617 0.0302707281121517 0.801268732041307 0.01512
0.01514 0.602518020981103 0.486613903618015 5.36497897351575 0.0310398275951784 0.788852341055007 0.01513
0.01515 0.572183630934033 0.277552782507743 5.45311310907983 0.0258739453636746 0.772422620058011 0.0151400000000001
0.01516 0.595795118979138 0.482350350018459 5.34909185776178 0.0256773745009309 0.766023186915416 0.01515
0.01517 0.616383830006886 0.479210245471478 5.34624732578959 0.0258958066092324 0.799389666318031 0.0151600000000001
0.01518 0.626619638505971 0.371228802433483 5.49460616195967 0.0325745378092194 0.798705231953913 0.01517
0.01519 0.606774797514873 0.572529615944142 5.30009181065016 0.0265004407192306 0.756760546650645 0.01518
0.0152 0.627759536393171 0.216745236612129 5.34435903049036 0.0204747568395218 0.797273395400874 0.0151900000000001
0.01521 0.519882185328359 0.421942785723058 5.4856929082617 0.023273033158179 0.808532500762716 0.0152
0.01522 0.47204003665757 0.5423397731773 5.38223575761386 0.0308067652488159 0.812036151666443 0.01521
0.01523 0.676841676284609 0.43250341734034 5.46202446327403 0.0247704697956367 0.817847262170951 0.01522
0.01524 0.399906289894141 0.326397330100791 5.44258135047397 0.0202691036163668 0.775234449035818 0.01523
0.01525 0.531853846155314 0.50381294251794 5.32004863807151 0.0301611142610361 0.805241929954301 0.0152400000000001
0.01526 0.641687888535882 0.453117481659902 5.52764981046665 0.0271709570385726 0.800486931882881 0.01525
0.01527 0.746703458008864 0.419712002205539 5.40562734758568 0.0373490701437157 0.786078654686568 0.01526
0.01528 0.48536545677243 0.342858817335846 5.44853476021501 0.0255514083582958 0.790603804625585 0.0152700000000001
0.01529 0.584303761447397 0.524413951173016 5.4993225298566 0.0333275879164001 0.780327552708741 0.01528
0.0153 0.653457437397993 0.553118193999369 5.41683818215885 0.0355047362912785 0.792905367321409 0.01529
0.01531 0.621658123702386 0.478236379482375 5.43937511703835 0.0298725003104259 0.792492534959921 0.0153
0.01532 0.595703494932767 0.442074202525557 5.43816851348307 0.0295754056684719 0.807180021546321 0.01531
0.01533 0.658473200721252 0.535052295239028 5.34479176475847 0.0355558426697741 0.773604460184234 0.0153200000000001
0.01534 0.61163458039359 0.508051995089101 5.45381757544061 0.0367830844929291 0.803246933410836 0.01533
0.01535 0.672011274008215 0.607553783902221 5.49100656749201 0.0355272340464572 0.795428740414638 0.01534
0.01536 0.577427294231671 0.485813793566318 5.31850812898973 0.0278755661156493 0.77297026581533 0.0153500000000001
0.01537 0.655317308854373 0.526745260369997 5.39018927858701 0.0339122733652322 0.794883545307917 0.01536
0.01538 0.60794338807338 0.661578199106032 5.35642343192043 0.0351647985598146 0.78654803528932 0.01537
0.01539 0.54140416079588 0.513677690813588 5.38670735070442 0.0296252754771964 0.801416565707751 0.01538
0.0154 0.73118393932484 0.430348237899435 5.32527175272646 0.0364279959756597 0.783112363917599 0.01539
0.01541 0.659994902218196 0.493711558272759 5.47956090677077 0.0340764710802086 0.789889223367655 0.0154000000000001
0.01542 0.790792004926715 0.543527520054501 5.42196333680023 0.0314330091386233 0.806026936430876 0.01541
0.01543 0.575402510869405 0.650105335260631 5.47871440392732 0.0325881457183704 0.812835181414741 0.01542
0.01544 0.783494263696044 0.57984385485482 5.36952066431469 0.0408367256862149 0.78080437329225 0.0154300000000001
0.01545 0.675210488210334 0.531073968372402 5.45735712590601 0.0342908326634793 0.806247313317428 0.01544
0.01546 0.843264868082341 0.597444081933728 5.48732395067883 0.0367725553647724 0.807702486497415 0.0154499999999999
0.01547 0.583466089565954 0.673680098577138 5.51186926756423 0.0361909943621814 0.805678066709538 0.01546
0.01548 0.775799654053682 0.604316067220217 5.46479104688425 0.0475986194311157 0.7992513352836 0.01547
0.01549 0.644367281701842 0.389587046070617 5.5601856799104 0.0270223814691687 0.804726031306906 0.0154800000000001
0.0155 0.522701080492965 0.585740968890757 5.41735019113756 0.0404393867443253 0.781285742810022 0.01549
0.01551 0.779666677384877 0.536528973450904 5.4535417105267 0.0402321647927712 0.814576859918302 0.0155
0.01552 0.713642939388526 0.597818497503084 5.53343197232772 0.0309101401252648 0.787916588759956 0.0155100000000001
0.01553 0.665140077525782 0.707141476956608 5.41073734591138 0.0402552517123206 0.802586515665538 0.01552
0.01554 0.724342438808373 0.552301782128798 5.5370458343411 0.0398357735628314 0.816246651933316 0.0155300000000001
0.01555 0.602534376921391 0.716653838113246 5.39611998386032 0.0333522308191627 0.800285856921801 0.01554
0.01556 0.655950671427264 0.525651315812228 5.46992569832125 0.0267778872734125 0.820056532496945 0.01555
0.01557 0.767286684317256 0.383424101901374 5.55005533898998 0.0331112488296824 0.794790890975755 0.0155600000000001
0.01558 0.68701144783922 0.570382905523839 5.44967269292233 0.0341331983282806 0.793507591503457 0.01557
0.01559 0.661592773167034 0.518522017337653 5.52792796952949 0.0375571966331521 0.798734973339584 0.01558
0.0156 0.799484325283746 0.535734513341451 5.47707842737469 0.0354168684269956 0.7838006981099 0.01559
0.01561 0.573495048785849 0.586531134071503 5.47173056163638 0.0392259523643184 0.816941858941449 0.0156
0.01562 0.7907748682815 0.477802690000247 5.54874666058391 0.0392578085647152 0.788457929842971 0.0156100000000001
0.01563 0.739776704753412 0.521686437349267 5.44406534697382 0.0337898832062086 0.821781539425522 0.01562
0.01564 0.780572635007557 0.732037201575212 5.58196268872423 0.0482630573707034 0.831398486716563 0.01563
0.01565 0.595754298878198 0.580158458417705 5.5196236368181 0.0311050016677942 0.795084974627842 0.0156400000000001
0.01566 0.501495744996966 0.381138436764496 5.57250175371136 0.014207099127958 0.831162282222182 0.01565
0.01567 0.531591130598578 0.390679633701592 5.60933127523826 0.0336534292939786 0.786947563395868 0.01566
0.01568 0.580962317256067 0.422447771348078 5.54338387948054 0.03004856098162 0.81256013966387 0.01567
0.01569 0.780811817794425 0.482666379092581 5.58397717776605 0.0368991949360409 0.823009370332747 0.01568
0.0157 0.595041328014745 0.362060303820921 5.518184320463 0.022606390467233 0.806590206091316 0.0156900000000001
0.01571 0.436856808763069 0.446246878308173 5.5805135085767 0.0294659320486259 0.808431064823238 0.0157
0.01572 0.746149582240553 0.628947317960557 5.58954310287746 0.0375638463606042 0.823094265049637 0.01571
0.01573 0.685495553674421 0.406537721861765 5.55215989097533 0.029375946885645 0.804959147564823 0.0157200000000001
0.01574 0.513177334169722 0.616239341419641 5.50039925873693 0.0385849671629037 0.820179180979029 0.01573
0.01575 0.653787223730095 0.441752653969617 5.55391026406771 0.0354198494741323 0.810343790656602 0.01574
0.01576 0.664019169751979 0.45851615214148 5.56456209504634 0.0317861854998017 0.804276264350802 0.01575
0.01577 0.656314085067579 0.674113290242875 5.65071617821438 0.0433965685141208 0.795036456653156 0.01576
0.01578 0.535386628513688 0.459010319337413 5.54704959925132 0.0248976299922056 0.81828782954777 0.0157700000000001
0.01579 0.691134974904281 0.474087225277228 5.59843168966786 0.031400849250925 0.823057576435152 0.01578
0.0158 0.699124266891337 0.482952584835926 5.55575870853606 0.0341717631575748 0.821626635739352 0.01579
0.01581 0.455156083073946 0.346088229551289 5.50079978312611 0.0225481351761113 0.832816660255126 0.0158000000000001
0.01582 0.510552985948398 0.376718065809925 5.66869313054543 0.0218304451753905 0.8421125216821 0.01581
0.01583 0.558171222445452 0.530295652279253 5.64928201441397 0.0372494140444985 0.815942165338174 0.01582
0.01584 0.509420093787975 0.335816622370482 5.61237297838061 0.0289332074715587 0.820641099621975 0.01583
0.01585 0.621265945382233 0.268915598010257 5.66727266222973 0.0184639097084565 0.823074093354505 0.01584
0.01586 0.468089884879111 0.448630305124811 5.6412300294754 0.0305817019081362 0.819105680400915 0.0158500000000001
0.01587 0.641007032089466 0.422130529058105 5.60192690057021 0.0223951740125894 0.846352954799348 0.01586
0.01588 0.662587477765765 0.390293056771658 5.62414090037984 0.0351045361764256 0.810657858896997 0.01587
0.01589 0.484279766448772 0.493557172062445 5.61038882349292 0.0286441674690825 0.817694065613637 0.0158800000000001
0.0159 0.627049718821644 0.430131968491847 5.66501321351759 0.0291940900734989 0.839223152426566 0.01589
0.01591 0.630083928928283 0.505851317630158 5.60264717975902 0.0338377149684068 0.835335249469572 0.0158999999999999
0.01592 0.632280410853343 0.433266786873492 5.74759710814452 0.0395260352742303 0.829299872885824 0.01591
0.01593 0.516942538414325 0.442395111288392 5.69677246873979 0.0269510814470987 0.8127254312315 0.01592
0.01594 0.534526537950317 0.500725434349426 5.73933937741188 0.0298522139160343 0.846427597034007 0.0159300000000001
0.01595 0.624660549378836 0.423766837531672 5.78975502533452 0.0263865370456003 0.820527114339275 0.01594
0.01596 0.581721774956627 0.57798723808947 5.60558468606219 0.0318351655253273 0.826725456953189 0.01595
0.01597 0.550949527322692 0.467368329580415 5.65429848585984 0.034062106219108 0.837264755710883 0.0159600000000001
0.01598 0.708976818102852 0.531984872051988 5.6973627385574 0.035677726995384 0.823075103916038 0.01597
0.01599 0.415058551308882 0.545315550982841 5.69041175701858 0.0229407767085377 0.834433435025868 0.0159800000000001
0.016 0.564967784202793 0.486770301200517 5.64061898296445 0.0277174252344628 0.812681167512407 0.01599
0.01601 0.664793865699077 0.514776994661663 5.74596041651802 0.0308376840271016 0.841472795662725 0.016
0.01602 0.533747037193567 0.432056045460795 5.74204474494577 0.0276886354396301 0.797000009482944 0.0160100000000001
0.01603 0.476375446344186 0.435623009411408 5.65924841174498 0.0302449411730459 0.814431330338788 0.01602
0.01604 0.57318982370154 0.44382600002963 5.71742218015663 0.0308783586759151 0.821525476324406 0.01603
0.01605 0.55043511536004 0.469027761712403 5.78067496488758 0.0346534100703578 0.840733807391653 0.01604
0.01606 0.597832955268463 0.444414264040687 5.76609686403685 0.0291130202656099 0.852076693370853 0.01605
0.01607 0.694514824712539 0.318356583982308 5.78139459123144 0.028395281831459 0.815023158158616 0.0160600000000001
0.01608 0.583825308112362 0.681019168935173 5.69627319761231 0.0340863394156805 0.838340887626911 0.01607
0.01609 0.723380995769217 0.419804958800401 5.81942287107992 0.0317493017965669 0.841185919700809 0.01608
0.0161 0.584969116770168 0.354729911430729 5.59852208812079 0.0261637255028952 0.829159653811914 0.0160900000000001
0.01611 0.685346423930396 0.49168997635031 5.7356060327517 0.0328165213124811 0.842971633373349 0.0161
0.01612 0.692159262882263 0.438304401273587 5.70262431758047 0.0333659387782876 0.828949200477507 0.01611
0.01613 0.718421244657491 0.54984736078029 5.73246527309472 0.0350394717493492 0.853982455819846 0.01612
0.01614 0.65482706421535 0.479362182666369 5.67920021447241 0.034372684790066 0.837276279409191 0.01613
0.01615 0.497264180419122 0.618883748292672 5.70296837405067 0.0261965129366963 0.84634833950352 0.0161400000000001
0.01616 0.824202924944657 0.624275029303709 5.71166347364537 0.0447885849471052 0.835639830524938 0.01615
0.01617 0.675619273192097 0.431197092707542 5.6244411846636 0.0310442040064999 0.817183788910424 0.01616
0.01618 0.5836982678145 0.633580617566106 5.63096642277214 0.0344190398439527 0.849164165566456 0.0161700000000001
0.01619 0.986651090104617 0.528746490696684 5.68465702087602 0.0393927987170453 0.828096081671644 0.01618
0.0162 0.794263887099893 0.609454967212549 5.73080059880171 0.0384964132099184 0.839996215521567 0.01619
0.01621 0.58786988406379 0.432780308438582 5.76102684795493 0.0236076768086523 0.816883108408345 0.0162
0.01622 0.771614318522586 0.349536840310702 5.64690271504224 0.035978518256917 0.836844469947133 0.01621
0.01623 0.689531137529341 0.555287261833969 5.77034270806221 0.0345557142201976 0.850830681740632 0.0162200000000001
0.01624 0.69491447655943 0.564208459302238 5.69932174677351 0.0346577668111769 0.817690893845155 0.01623
0.01625 0.675003529849107 0.524044748590716 5.61725803898097 0.034848490842324 0.841527751762239 0.01624
0.01626 0.637326534845947 0.423501655568183 5.73975462745702 0.0292834569949869 0.831578822906114 0.0162500000000001
0.01627 0.595280223934262 0.664491021673245 5.53611598042805 0.0325380754551117 0.810132144138782 0.01626
0.01628 0.745497275821053 0.630240166265206 5.63983434916665 0.0399505740015994 0.857937553204625 0.0162700000000001
0.01629 0.73725908246256 0.641276462971654 5.78116129044486 0.0408655261072497 0.838757235598925 0.01628
0.0163 0.680215585715569 0.667075160420421 5.67318749717418 0.0413141046911755 0.824892768526934 0.01629
0.01631 0.489350606701945 0.553287534852021 5.68639745572379 0.0243326628449543 0.83532630355068 0.0163000000000001
0.01632 0.703473117566702 0.654409994805347 5.60739514169051 0.0395011681702363 0.818086061591176 0.01631
0.01633 0.657927717524235 0.549898777927976 5.68475817868326 0.0360182077309548 0.830411111410795 0.01632
0.01634 0.757249583215206 0.701531618198807 5.70001918435362 0.0471074573838518 0.8491018175861 0.0163300000000001
0.01635 0.572919424642456 0.509724667952046 5.76866153730113 0.0243515833936585 0.8219018067399 0.01634
0.01636 0.75250108809417 0.588922851532178 5.71963688505257 0.0341222649747399 0.826347777211487 0.0163500000000001
0.01637 0.749560404294082 0.62470071025685 5.60387524661364 0.0412299518637328 0.818544873066051 0.01636
0.01638 0.826692505460312 0.715594699276409 5.7180495174356 0.0399533410925682 0.84876388148403 0.01637
0.01639 0.670396744477957 0.607685806472878 5.89205064384861 0.0355271610216281 0.834243465243358 0.0163800000000001
0.0164 0.723867106061967 0.649643090667011 5.7399466776724 0.0362573009112157 0.853982593418952 0.01639
0.01641 0.874191940233511 0.472146038283407 5.73961699241976 0.035819657845044 0.864211279229591 0.0164
0.01642 0.5328418046278 0.645146358864556 5.66804579164718 0.0357400233385644 0.832971438402598 0.01641
0.01643 0.623957718917912 0.583013869725844 5.70280894066987 0.0321588342329869 0.839221930990071 0.01642
0.01644 0.702223688421389 0.50117317225227 5.82231757808653 0.0218667833488617 0.829877171623981 0.0164300000000001
0.01645 0.670987175688058 0.769312259135811 5.68698640879422 0.0434839399842721 0.825719379237845 0.01644
0.01646 0.741853879266437 0.568831793573358 5.81218472278135 0.0414038158851369 0.848058853888863 0.01645
0.01647 0.704422390145543 0.630951534490453 5.80902145110978 0.0418339585049807 0.841878070432262 0.0164600000000001
0.01648 0.629462583816524 0.561330776963111 5.80380418628271 0.0342510140657802 0.839262475076764 0.01647
0.01649 0.635894733201746 0.482328253872857 5.79466688950722 0.0317253427129071 0.862944457924022 0.01648
0.0165 0.775007312105433 0.681624298198981 5.94599191642177 0.0407825899867964 0.862793222598204 0.01649
0.01651 0.727520651443149 0.427152646360876 5.77182899233508 0.0274345400899186 0.83747830165495 0.0165
0.01652 0.599575638809361 0.38053670725247 5.93182495234327 0.0273372964277464 0.859527475466094 0.0165100000000001
0.01653 0.647174454563911 0.461646133155012 5.80662374095285 0.0296489618955556 0.846478742271199 0.01652
0.01654 0.601592778966877 0.443680374825823 5.90708776974942 0.0271183197921681 0.877133207776842 0.01653
0.01655 0.657278962062812 0.611186705644135 5.79694439584772 0.0305547624735938 0.846718996809863 0.0165400000000001
0.01656 0.552792833729138 0.555894524831712 5.78427276547729 0.0367584580229054 0.84584906483706 0.01655
0.01657 0.667381027293337 0.427963208548208 5.84389543027348 0.0275661921043424 0.848815789579208 0.01656
0.01658 0.522916540830256 0.621920774755363 6.01970318141271 0.024131061027575 0.870253091396282 0.01657
0.01659 0.582821451904418 0.589364373917937 5.73397807505992 0.0355517052329201 0.850635344001214 0.01658
0.0166 0.507305155156668 0.444228162008458 5.82991005921264 0.0241751783207525 0.875615144488714 0.0165900000000001
0.01661 0.583874325221315 0.378541770289845 5.96707451223262 0.0221726054673429 0.861452678832503 0.0166
0.01662 0.72580434663554 0.653937148631111 5.82472346366631 0.0391195684269397 0.854342604588667 0.01661
0.01663 0.642431445358415 0.684530522725933 5.81643375509786 0.0360195191682144 0.84714836715961 0.0166200000000001
0.01664 0.508369900625868 0.507719990524025 5.85609796788987 0.0312862553362032 0.846188988315304 0.01663
0.01665 0.63649622785372 0.381029722614732 5.89290988853316 0.0270774382585985 0.875047077166236 0.0166399999999999
0.01666 0.864008797474722 0.641180912237085 5.91468020199079 0.0461126917382786 0.849096375621794 0.01665
0.01667 0.550052066284524 0.69613378755579 5.85866373633073 0.0360206611021957 0.868725129639278 0.01666
0.01668 0.470800759780461 0.436664263914301 5.91113881463925 0.0168550222254905 0.876715807152565 0.0166700000000001
0.01669 0.683864490296878 0.416821521980703 6.05536829057299 0.0325559650792256 0.875550160796728 0.01668
0.0167 0.446725649806307 0.554601885904112 5.92419132616241 0.0291393224226375 0.862768633452003 0.01669
0.01671 0.662582392337018 0.395734266732221 5.9252350268256 0.0343944781965344 0.873267313092346 0.0167000000000001
0.01672 0.432830120705845 0.315281264370754 5.94663727696089 0.0143548447426195 0.852025474639843 0.01671
0.01673 0.542441363425791 0.606799964540556 6.0114170023079 0.0332529214164885 0.877200510209099 0.0167200000000001
0.01674 0.492843503477506 0.533254048122895 6.06599779351249 0.0308632551222714 0.89426474023935 0.01673
0.01675 0.488659835521278 0.42569936998733 6.01515787757202 0.0244551790423079 0.860554313670974 0.01674
0.01676 0.528634113947359 0.465985331242119 5.86832249642214 0.0259818105751991 0.850237711342466 0.0167500000000001
0.01677 0.606903673265996 0.470752173056011 5.96364592244283 0.0372755159557665 0.882818955633946 0.01676
0.01678 0.598840488735889 0.489147283253022 5.92285981516456 0.0284472095216177 0.86382620791855 0.01677
0.01679 0.647201346586537 0.548693228004941 5.9027105373719 0.0402839050657536 0.875014926006998 0.01678
0.0168 0.666781619121329 0.559473419522115 6.03147590281266 0.0323653397445848 0.854129078343177 0.01679
0.01681 0.476927382710978 0.406624816041275 5.92751131510366 0.0232098576557389 0.870029082194418 0.0168000000000001
0.01682 0.547216460260287 0.468923364943592 5.97319809604696 0.03014179808983 0.870232907723955 0.01681
0.01683 0.786781939168859 0.43917413272124 5.94248911377466 0.0325285606871553 0.861948234053023 0.01682
0.01684 0.850163434047596 0.689086933396422 5.91741478950517 0.0409402798077048 0.886512326608285 0.0168300000000001
0.01685 0.622342734889093 0.54545998142657 5.98712502087955 0.0306579394432391 0.861801938280384 0.01684
0.01686 0.68680000352938 0.333652580274792 5.84062033402452 0.0227787562943242 0.864403571044782 0.01685
0.01687 0.556226556850866 0.663142599151118 6.0187104632271 0.0385002904282414 0.879036185653189 0.01686
0.01688 0.552170991717659 0.461750793508406 5.89535131814173 0.0301769914550772 0.868758517626445 0.01687
0.01689 0.78546341601759 0.497095150686403 5.94890547535331 0.0342103089591161 0.895728644439337 0.0168800000000001
0.0169 0.524703782447923 0.508228306363043 5.93797951108545 0.027288236455173 0.847046278147094 0.01689
0.01691 0.566277705300115 0.355285783268408 5.9932052796929 0.0217627076019191 0.907581787263869 0.0169
0.01692 0.84640917773778 0.753144805835538 6.10034395759625 0.0487588746068748 0.884697933056518 0.0169100000000001
0.01693 0.698446413136605 0.591001951059945 5.86804318946865 0.0396121139514758 0.849190643241072 0.01692
0.01694 0.684993122599036 0.687466542391261 5.95861426823188 0.0377851631046327 0.877709040414697 0.01693
0.01695 0.643645741029107 0.748351726914921 6.00014254878644 0.0397925790500403 0.854953161990785 0.01694
0.01696 0.781809600022887 0.500754257335876 5.86280376408122 0.0431997742850748 0.882372812915721 0.01695
0.01697 0.724148717973092 0.692810708942969 5.91996047852485 0.0419316311460362 0.852138511291718 0.0169600000000001
0.01698 0.570419099613748 0.538077297313741 5.97368864926627 0.0317499731505952 0.899528341177697 0.01697
0.01699 0.622558065019387 0.496133649062921 6.07849437094273 0.0384932279630143 0.879551669460886 0.01698
0.017 0.596079975098985 0.601389061097432 5.97004718167227 0.0389003726314791 0.859074316508822 0.0169900000000001
0.01701 0.687107718474226 0.422298789851843 5.87094279138386 0.0338401707785636 0.8650050218724 0.017
0.01702 0.689295705105367 0.609880673975743 5.97365856412031 0.0429174857975973 0.871744720494577 0.0170099999999999
0.01703 0.848648489804265 0.66918208784257 6.07665562564065 0.0467232322775054 0.882615468833775 0.01702
0.01704 0.896415268395277 0.50837396235769 5.94157381851762 0.0429875207897154 0.864891320866894 0.01703
0.01705 0.568622795440509 0.671933007075199 6.03548138217405 0.0377717680008935 0.890004502524786 0.0170400000000001
0.01706 0.910296862185787 0.665275511571867 6.06804141451586 0.0462867323888774 0.882581092641011 0.01705
0.01707 0.894094620606779 0.624419722412318 6.00707436253778 0.0406085284664943 0.874983415554186 0.01706
0.01708 0.78283776613547 0.61283516598122 5.96513630905216 0.0350016033541681 0.891714969535161 0.0170700000000001
0.01709 0.827075591639244 0.572000033459558 6.07008239948446 0.0390178479918213 0.888008135559412 0.01708
0.0171 0.787664414769903 0.754553443767861 6.06174578320568 0.0457858282666065 0.863866587051939 0.0170900000000001
0.01711 0.91561217861616 0.866051414127534 5.89390628405847 0.0542946480343905 0.889302888730809 0.0171
0.01712 0.741514959642716 0.652744552263324 6.09813176932359 0.0324543550033769 0.905243882020247 0.01711
0.01713 0.786561897015582 0.6017956137278 5.97644403976928 0.0423528518880762 0.8798223419315 0.0171200000000001
0.01714 0.754253591655724 0.828231791599812 6.07548753933259 0.0429060998060486 0.904383469925283 0.01713
0.01715 1.00055635515054 0.789777867027059 6.03030259832037 0.0508384707693245 0.879651593965864 0.01714
0.01716 0.77998767711484 0.611518343908576 6.05049950606253 0.0354332875554622 0.899263166851482 0.0171500000000001
0.01717 0.734883318909579 0.548929127996231 6.01186736602964 0.0389403191788078 0.876212042058912 0.01716
0.01718 0.862173208976545 0.714946545204008 6.01525805529251 0.0392379787764884 0.878252121356719 0.0171700000000001
0.01719 0.800446533156668 0.732536441653015 5.93432135692172 0.0428730872831814 0.875005163912883 0.01718
0.0172 0.795327058286242 0.694737848401364 6.01647266014491 0.047660782824388 0.885773995344264 0.01719
0.01721 0.845170522197778 0.706577238148191 6.0213324208148 0.0448878571058472 0.893762487044524 0.0172000000000001
0.01722 0.884317617832504 0.615301812781161 6.1081021331167 0.0388041958204689 0.892175924286759 0.01721
0.01723 0.805644037661406 0.998176117815316 6.11540574944805 0.0481373695511962 0.892537823960343 0.01722
0.01724 0.893116471789773 0.88507344138025 6.05567153825292 0.0481664286659828 0.880715606486572 0.01723
0.01725 0.858925644280671 0.755333110488536 6.00086085952909 0.0469973974484784 0.902469843373391 0.01724
0.01726 0.840307201555394 0.703174708672918 6.15146255558235 0.0416390706370317 0.865260053289092 0.0172500000000001
0.01727 0.860581606744032 0.846929760357784 5.93781077049151 0.0477626824297024 0.859897551375476 0.01726
0.01728 0.836014840758012 0.743953516743024 6.04784369166134 0.0413577887616789 0.922998023922407 0.01727
0.01729 0.73679402200502 0.472735803156547 6.23679723182866 0.0272289952744449 0.889543836234908 0.0172800000000001
0.0173 0.731717228190484 0.439470461543736 6.04409154583191 0.033196645202969 0.90115715476501 0.01729
0.01731 0.951260290307624 0.642993184926607 6.14350243522903 0.0443964474840072 0.895489085015741 0.0173
0.01732 0.877807001096348 0.741320283676108 6.00440757748008 0.0415716261110762 0.887018847162976 0.01731
0.01733 0.705117136485927 0.593120577366388 6.17569654332371 0.0387976053675335 0.891648684933756 0.01732
0.01734 0.771764304034609 0.73582718253124 6.03874447181929 0.0455856687367168 0.895536430139222 0.0173300000000001
0.01735 0.849011247777889 0.614840416437108 6.13185393563925 0.0375322956280407 0.897250055195656 0.01734
0.01736 0.717971934076503 0.650977033546841 6.19616044087977 0.0452832260941712 0.883062331122416 0.01735
0.01737 0.743328834779543 0.553735198286717 6.02192693711451 0.0298989270095644 0.907118613256874 0.0173600000000001
0.01738 0.763230117030031 0.658389500600035 6.17241673078904 0.0394611659986467 0.892872379738347 0.01737
0.01739 0.776000360760746 0.711197273093359 6.09550352660468 0.047743413863294 0.881522684160016 0.01738
0.0174 0.718159228391332 0.54792489516316 5.95971834767432 0.0380231062732281 0.866833453713747 0.01739
0.01741 0.876298266776005 0.57742781293556 6.02475262891226 0.0349046970012338 0.89669450279502 0.0174
0.01742 0.84504087171873 0.694000125110105 6.05851162697541 0.0421182972481635 0.890097446810642 0.0174100000000001
0.01743 1.01403686386019 0.814190279993667 6.09931048215906 0.049971756781774 0.896744675273005 0.01742
0.01744 0.767890154235678 0.625149963800805 6.19498161831337 0.0425889434539598 0.898631282484566 0.01743
0.01745 0.683133954423239 0.640732546961172 5.99821356937632 0.0424949615157854 0.87782498602501 0.0174400000000001
0.01746 0.90021702431348 0.54986616619416 5.99551254292558 0.0371837367752823 0.898367760472239 0.01745
0.01747 0.782446085673302 0.869871159815847 6.14042149071579 0.0509155494484796 0.885242285562883 0.0174600000000001
0.01748 0.703445969484371 0.577714915309468 6.16055288515319 0.037747766647587 0.891704402933658 0.01747
0.01749 0.786653338789445 0.551302858283063 6.16482133742391 0.0377408284323802 0.905063277738206 0.01748
0.0175 0.781184379565473 0.766267388050797 6.13756594082796 0.0425362750903018 0.896188841361661 0.0174900000000001
0.01751 0.881861336679817 0.587808340383925 6.19091338558037 0.0405552846247048 0.902105883398711 0.0175
0.01752 0.670362148386353 0.7284002242711 6.1082432053546 0.0387559013705951 0.864078997612861 0.01751
0.01753 0.781582108758596 0.630827847002829 6.01246163346229 0.0425588140415 0.90335064181736 0.01752
0.01754 0.846886463255479 0.494818037410547 6.23654400538439 0.0389576600464541 0.927693323657119 0.01753
0.01755 0.821870576113964 0.64826564968747 6.22625965358707 0.0413917665217465 0.898231425729498 0.0175400000000001
0.01756 0.588789385194709 0.547133228444219 6.18533681382753 0.0338801926953624 0.902184267129697 0.01755
0.01757 0.781294088406728 0.820148089501619 6.05631035602051 0.0433359957948449 0.883681138549352 0.01756
0.01758 0.8291630221603 0.818984956773008 6.08334442906287 0.0414159004227673 0.893929482813664 0.0175700000000001
0.01759 0.885057067884863 0.646698805468466 6.15081036186028 0.0425972019339796 0.905730274586323 0.01758
0.0176 0.686138008851891 0.692815131440729 6.12985419727191 0.0398204258354038 0.903104272644438 0.01759
0.01761 0.900850569386249 0.660051356018644 6.13482338053733 0.048888601639484 0.881966656095837 0.0176
0.01762 0.675495394402829 0.691586649033315 6.15376069474335 0.0386170221127573 0.902240509941112 0.01761
0.01763 0.721988504400913 0.539520543372294 6.19779161229854 0.0378467013891149 0.913792347014031 0.0176200000000001
0.01764 0.826516629533597 0.664018071394508 6.13703210470547 0.0439415921380857 0.881433948803314 0.01763
0.01765 0.710155439906247 0.572073283275983 6.27694661694941 0.0374613186774866 0.916544860040651 0.01764
0.01766 0.812199241774497 0.598665670161979 6.23549196344903 0.04004212070585 0.886189927622965 0.0176500000000001
0.01767 0.698399635728499 0.61508854449136 6.18159534279524 0.0386685286675297 0.917525332364751 0.01766
0.01768 0.702593718252362 0.478717022191736 6.20542932636133 0.0315741965260402 0.92462569676288 0.01767
0.01769 0.879148465807112 0.472885360643004 6.2926004250475 0.0371507964691717 0.901909731542397 0.01768
0.0177 0.675565513629585 0.747922514980153 6.28958170139639 0.0418651498724653 0.910042647238652 0.01769
0.01771 0.809140961528313 0.788524128988233 6.2061587720097 0.0395053714747454 0.930853754334011 0.0177000000000001
0.01772 0.923807467343539 0.641579158196356 6.1959561522351 0.0499832734365154 0.901350292295927 0.01771
0.01773 0.694600474055475 0.531132008696127 6.28454920453043 0.0356496546962838 0.909228111028835 0.01772
0.01774 0.927975467789491 0.568340758124202 6.16476446618195 0.0447159650772668 0.895814497451239 0.0177300000000001
0.01775 0.672770651109991 0.875571578324853 6.18127842984065 0.0443429009159659 0.910372508500125 0.01774
0.01776 0.600793182432922 0.39432871650677 6.27663712443578 0.026608795830983 0.918951743875657 0.01775
0.01777 0.830952392734149 0.680109618888031 6.2662489138189 0.0423776713003016 0.93321321588114 0.01776
0.01778 0.891590020999056 0.802172039088327 6.15985066630031 0.054415252133184 0.91223364653884 0.01777
0.01779 0.513719465440885 0.654478359205152 6.24519693669244 0.0364727628242333 0.907474891827654 0.0177800000000001
0.0178 0.743045913768023 0.569066286012219 6.35017999106 0.0404810152733873 0.91585018031695 0.01779
0.01781 0.928454893182329 0.660644613199005 6.28347400903341 0.0466922349564532 0.893215451260136 0.0178
0.01782 0.784077858097819 0.660031829392851 6.16935515157263 0.0304512391187132 0.908933050377463 0.0178100000000001
0.01783 0.820882326708972 0.785740264960558 6.27678291409672 0.0527497213028569 0.931917715479093 0.01782
0.01784 0.861176968573546 0.700376749832993 6.24416469280139 0.0481345735800117 0.927961943247516 0.0178299999999999
0.01785 0.763704353051048 0.625283866798907 6.3846544101752 0.0377151269250357 0.925314763488312 0.01784
0.01786 0.839743340534173 0.741569305628694 6.22320514529227 0.0494269601694676 0.912726120753672 0.01785
0.01787 0.856938470508481 0.641805107889434 6.22957436202284 0.0382919904092543 0.934061241176242 0.0178600000000001
0.01788 0.904219217899024 0.800302288755865 6.20618487704132 0.0454718969532566 0.906892652763894 0.01787
0.01789 0.762336394999693 0.589751602709328 6.26989315228222 0.040813709055946 0.922577501105725 0.01788
0.0179 0.734375279097206 0.729562879147197 6.22892818071074 0.0384313396135204 0.905220491744348 0.0178900000000001
0.01791 0.907221371620868 0.680773053828164 6.28876927332806 0.0407213135308654 0.919215026420055 0.0179
0.01792 0.861705434560715 0.613328528383224 6.23335897719338 0.0469247843238165 0.933547258299881 0.0179100000000001
0.01793 0.783785556038346 0.840152708414559 6.26377936800825 0.0457574284119583 0.912654032570438 0.01792
0.01794 0.771636623396349 0.675464379228441 6.25536765239282 0.0460878768924062 0.929332539912394 0.01793
0.01795 0.828055902372841 0.693829005050924 6.27581716560367 0.0467575468144258 0.904388321921796 0.0179400000000001
0.01796 0.774814504800895 0.755360787739764 6.20517515571767 0.038437064389949 0.909386361095964 0.01795
0.01797 0.701291237378624 0.710512898581426 6.28870889960882 0.041799166412333 0.919020941123697 0.01796
0.01798 0.92241381431492 0.447154591563196 6.16516062458559 0.0357215088764071 0.905777499111313 0.01797
0.01799 0.810089421381831 0.743580349098141 6.35065966026275 0.0466937573677485 0.924696095059115 0.01798
0.018 1.07966720927639 0.910447715967162 6.26634107307564 0.0482088411568575 0.914731581914027 0.0179900000000001
0.01801 0.747299233235919 0.731362949658522 6.23379113225358 0.038695127503785 0.926547706758297 0.018
0.01802 1.04265748932141 0.634336681901613 6.26945944144879 0.053875738109011 0.915332949662525 0.01801
0.01803 0.792004254633859 0.700548222302817 6.28250336321367 0.0366593971286857 0.920613251736082 0.0180200000000001
0.01804 0.679960495946622 0.670373656989708 6.35197133521941 0.0369267821804422 0.914160102035611 0.01803
0.01805 0.832731159701378 0.715489203848798 6.28951626892923 0.0548255808159688 0.909691897149393 0.01804
0.01806 0.831209120561267 0.779635003270923 6.26850954843625 0.0380638728531301 0.925736537104458 0.01805
0.01807 1.01867453330086 0.678517793064611 6.37426955063476 0.0519284801139431 0.921812167945418 0.01806
0.01808 0.991123480226059 0.757778846947093 6.33433822645041 0.0501821994808381 0.892237370510557 0.0180700000000001
0.01809 0.711144047267255 0.705038075434344 6.18440183266005 0.03699509462663 0.925066269498065 0.01808
0.0181 0.857268231449406 0.647989610893157 6.32421602773773 0.0418100017083315 0.913726776061822 0.01809
0.01811 0.859488438335647 0.868223764424386 6.30594508018631 0.0475527452819802 0.914604881929693 0.0181000000000001
0.01812 0.794075290956548 0.734908923637812 6.21394292503944 0.0419743708181803 0.933582922079799 0.01811
0.01813 0.88799498719705 0.687869569556325 6.31927805014632 0.0451495948242074 0.919101073756773 0.01812
0.01814 1.05062657841344 0.67625668682099 6.33364885537232 0.0490603139490597 0.917666803256437 0.01813
0.01815 0.818617721050848 0.787647547323152 6.34237717985987 0.0416645465451156 0.906861838506365 0.01814
0.01816 0.893064927256217 0.674249806600969 6.23856625489353 0.0452262835594259 0.919830320726781 0.0181500000000001
0.01817 0.779372792960587 0.784875980477338 6.31301487061753 0.0355373417367669 0.941548153743335 0.01816
0.01818 0.93613718254494 0.852529778280148 6.38970800608371 0.0550440692124466 0.928269212431392 0.01817
0.01819 1.09960507143553 0.824416114938923 6.28587955026322 0.0537583472867857 0.926850157508008 0.0181800000000001
0.0182 0.805327754546819 0.703845364602954 6.44479498432276 0.0434724501644537 0.93485249850605 0.01819
0.01821 0.832983087131375 0.730850545581746 6.42322474265853 0.0464663276814109 0.928266389343971 0.0182000000000001
0.01822 0.890346617497716 0.831333517251861 6.2664930821742 0.0536670704278891 0.910341965245481 0.01821
0.01823 0.932174833809031 0.766215315569218 6.36973988990333 0.0453530310581769 0.922973807686981 0.01822
0.01824 0.97097804799412 0.724970337904871 6.22712798909581 0.0382596398415122 0.930983878627362 0.0182300000000001
0.01825 1.09472508951963 0.716287602468706 6.31632690670442 0.0509083038427559 0.947414037204279 0.01824
0.01826 0.887276971938742 0.744204791648282 6.33603766580711 0.0487444259966804 0.940157410733045 0.01825
0.01827 0.963668269409942 0.639458099208622 6.52037754860559 0.0395233492714156 0.933120235240332 0.0182600000000001
0.01828 0.82404653981877 0.616125641005306 6.39555064979501 0.0396812086781257 0.919750043487138 0.01827
0.01829 0.915430821433118 0.892626259465006 6.35880805739885 0.055710325233093 0.945050582513251 0.0182800000000001
0.0183 1.038801862142 0.855357482765555 6.41475179741909 0.0548024679012052 0.910379554709305 0.01829
0.01831 0.959570790411697 0.849503240759215 6.2378755254839 0.0474446230858519 0.912622467627428 0.0183
0.01832 0.951204224466215 0.608413072751982 6.30415003039506 0.0438710783803239 0.913289267590894 0.0183100000000001
0.01833 0.92223039678303 0.844771729553961 6.3100553808564 0.050686994831334 0.930572910029487 0.01832
0.01834 0.907489388034175 0.800280281634974 6.46237402213164 0.0526888788334153 0.966247247315989 0.01833
0.01835 0.847730280504856 0.597850857147053 6.43349461672424 0.0369487923885496 0.909678816842763 0.01834
0.01836 1.00417098197848 0.618319929865867 6.30072283777673 0.0384876254294625 0.934159874712091 0.01835
0.01837 0.78461030280572 0.941250363811277 6.49792135780709 0.0577967527797853 0.950893242989996 0.0183600000000001
0.01838 0.727918894842782 0.739174860098503 6.54127456331671 0.0436473366317329 0.948257067041404 0.01837
0.01839 0.79473365301453 0.655440968197672 6.41405583535247 0.0375028128858829 0.914576421030134 0.01838
0.0184 0.91376656412628 0.688522487229856 6.322166982179 0.0397507941830477 0.934801758274188 0.0183900000000001
0.01841 0.990774913640939 0.892661382992218 6.36597756413124 0.0509886965504417 0.932789232531859 0.0184
0.01842 0.948917095152709 0.877001979046936 6.46049999106041 0.0471278562509211 0.953493900979621 0.01841
0.01843 0.813781122344679 0.65402356085689 6.36724836902892 0.0399019430180998 0.938142097048162 0.01842
0.01844 0.83313561261369 0.647868103104613 6.43287062951702 0.0389004324830525 0.948803891612996 0.01843
0.01845 1.01527753699998 0.895735910296841 6.4249238997576 0.0529369614605141 0.93788929627752 0.0184400000000001
0.01846 0.881424686244761 0.730530476179421 6.36777518611319 0.0444874901846541 0.935815426698253 0.01845
0.01847 0.92149703319343 0.661228807369291 6.35310885931985 0.0474238295235349 0.94569176830939 0.01846
0.01848 0.916119173647228 0.766549453350078 6.47078036126179 0.0477145608362244 0.957857384928345 0.0184700000000001
0.01849 0.904333760597537 0.793421184623759 6.428206343321 0.0422493641851518 0.950471094571447 0.01848
0.0185 0.877930407784547 0.716532975800008 6.38914619577341 0.0455049411753107 0.934597462499438 0.01849
0.01851 0.855871657978089 0.79308756014236 6.37519504988285 0.0415987363718751 0.949673881025768 0.0185
0.01852 1.00945197268439 0.717787091849733 6.39492986297887 0.0523573646471574 0.929624179403203 0.01851
0.01853 0.87750780290527 0.827528924795965 6.40759183030635 0.045907071652975 0.95560265271415 0.0185200000000001
0.01854 0.832723515294692 0.683998530580499 6.44380903908273 0.0400241468155505 0.949671699065011 0.01853
0.01855 1.0258717648076 0.691208556079374 6.37612514542788 0.048918652670573 0.94153683449129 0.01854
0.01856 0.844710656864416 0.787120311466485 6.51896829923577 0.046473621360914 0.943518429646768 0.0185500000000001
0.01857 0.852093958763165 0.806350288286969 6.44142537112612 0.0456088863202732 0.946296809764975 0.01856
0.01858 0.717795671460484 0.763545513997447 6.4634184979729 0.041330355789344 0.971784863976678 0.01857
0.01859 0.884917831955289 0.803490846075252 6.52806255326511 0.0486307176580243 0.949886208351326 0.01858
0.0186 0.845034375642231 0.656793434060331 6.46245252194264 0.0455949394807328 0.944798532375232 0.01859
0.01861 0.871979824051918 0.747971077872339 6.47492060839101 0.0431089715186545 0.945964892137156 0.0186000000000001
0.01862 0.802452905718647 0.764070447209668 6.46334659681178 0.0435569601015581 0.936148044601596 0.01861
0.01863 0.86530722893967 0.842370679199397 6.42585374668981 0.0484906745133047 0.960670193590441 0.01862
0.01864 0.788742501826268 0.820222665097279 6.61340337533144 0.0458397270840501 0.961959550474614 0.0186300000000001
0.01865 0.792378223134189 0.761015958769499 6.39707444666556 0.0427013878091419 0.944915488792153 0.01864
0.01866 1.01646226161386 0.671128527015825 6.52667364609103 0.0459699831294205 0.94824371130475 0.0186500000000001
0.01867 0.938575396643361 0.914252335205014 6.52183797144326 0.0471915639361029 0.939088699007381 0.01866
0.01868 1.07358172379685 0.968462240040045 6.44068560895568 0.0566757545622625 0.932014264666813 0.01867
0.01869 0.806611624425746 0.736581382939358 6.51183823265269 0.0364769363849126 0.967060298184709 0.0186800000000001
0.0187 0.891635234536393 0.826297570104867 6.45845453515761 0.0510607051964424 0.931518044493264 0.01869
0.01871 0.922328354929746 0.950984749928311 6.41978302099962 0.0494941921571931 0.970334504040699 0.0187
0.01872 1.0185054105986 0.829303836939457 6.54094393138016 0.0504510921066997 0.961020384510157 0.01871
0.01873 0.960920776204823 1.00002004164724 6.44281259387008 0.053746586018356 0.944648740963486 0.01872
0.01874 0.853319205192949 0.732796512008596 6.57613712803157 0.043361274600083 0.96986962796234 0.0187300000000001
0.01875 1.07479432141482 0.981292446312374 6.46764751187768 0.059697427701415 0.929281025634814 0.01874
0.01876 0.916610997278743 0.99418112829653 6.41768108335146 0.0548456882724133 0.92975679718545 0.01875
0.01877 1.02721537839235 0.815687089283449 6.37468959229211 0.0461338860322237 0.968849231930797 0.0187600000000001
0.01878 0.898959125393788 0.767614284416809 6.64677660163295 0.0488817605873582 0.969608046917162 0.01877
0.01879 0.886345591296267 0.901703756224629 6.53809126636714 0.0583809124611205 0.938778485984446 0.01878
0.0188 1.01544936711833 0.847156572006444 6.4980590930986 0.0474655327570698 0.986439477948907 0.01879
0.01881 0.859779677293977 0.735931936941377 6.63578395949122 0.0422574347235758 0.954835406420957 0.0188
0.01882 0.97366224446931 0.816951347056295 6.39115789358374 0.0533266218704205 0.9332688390312 0.0188100000000001
0.01883 0.991910755573376 0.83094299908989 6.57996661566406 0.0539877136551945 0.952073940667986 0.01882
0.01884 1.13206263257115 0.9571163222265 6.45848147523383 0.0555131821401802 0.942892285990967 0.01883
0.01885 0.912203365234294 0.909429785142802 6.42399785902543 0.0479875489155532 0.977090888833235 0.0188400000000001
0.01886 0.951625402892346 0.837434402176548 6.61874871630764 0.0458399140488622 0.974758167973566 0.01885
0.01887 1.03690605345364 0.888593358017567 6.53526094578498 0.0594375221173068 0.94612726633923 0.01886
0.01888 1.06409118225249 0.985446602498979 6.49877154364999 0.0646857987801478 0.956201386311663 0.01887
0.01889 1.03337313566319 0.887644309896172 6.49536073789051 0.0479067678674543 0.959007308343179 0.01888
0.0189 1.0756072190238 0.749736073065482 6.51776918278482 0.0532199615846527 0.930828202107722 0.0188900000000001
0.01891 0.888877599513947 0.829161106016728 6.46514685589699 0.0494565571854264 0.940125720340615 0.0189
0.01892 0.862406403887228 0.939132407791684 6.55604922174161 0.0495541858530702 0.964193580244799 0.01891
0.01893 1.00550665472217 0.957465458056193 6.46845151434825 0.0524944436809916 0.950923060129107 0.0189200000000001
0.01894 0.876114998314702 0.894111332662702 6.56890975474484 0.0547415274897647 0.974257253962362 0.01893
0.01895 1.08653008473992 0.812574530456661 6.68322211643793 0.056307978886024 0.972846993949738 0.0189400000000001
0.01896 0.864724424247695 0.895991230247169 6.56314779472554 0.0498749523089504 0.946940896662362 0.01895
0.01897 0.977783682134232 0.810196355987045 6.5746569971932 0.0593247645013556 0.961888357888691 0.01896
0.01898 0.964661458324429 0.815657846539258 6.64975689975075 0.0509797464944286 0.971079506455884 0.0189700000000001
0.01899 0.949189072600293 0.898238661092051 6.56380507950015 0.04681489381594 0.975019192723064 0.01898
0.019 1.06066576015071 0.798114674447722 6.6591004768579 0.0588192888136262 0.979031485031002 0.01899
0.01901 0.936739849044318 0.865854215886631 6.53296026944815 0.0433752826260271 0.957533135243258 0.0190000000000001
0.01902 0.983563446980678 0.801626038363089 6.6064884903476 0.053606129438465 0.97022565052063 0.01901
0.01903 0.905298760415203 0.704735875094259 6.60884528774383 0.0460947489363887 0.954848477029464 0.0190200000000001
0.01904 1.03000919817254 0.757116727372661 6.65073253054429 0.0461564139579959 1.00119011647385 0.01903
0.01905 0.865854622932839 0.750467037014266 6.71388096576508 0.0428025739666108 0.964107725988365 0.01904
0.01906 1.03509934329223 1.02880293185154 6.41399292262427 0.057568518847045 0.94150539077252 0.0190500000000001
0.01907 0.870255741995063 0.968898654001667 6.47716851957867 0.0505987695553483 0.987214348987711 0.01906
0.01908 0.88259967692264 0.794387596929316 6.75065778353334 0.0512810795035829 0.990971218883263 0.01907
0.01909 0.970294348876313 0.803998302462336 6.69080731087021 0.0498871228093362 0.968468030074323 0.0190800000000001
0.0191 1.04432793672439 0.814596508617043 6.60176345093279 0.0554217657692192 0.975106909864163 0.01909
0.01911 0.984545580776767 0.867769885810131 6.71432416164451 0.0531480824202757 0.975131019501864 0.0191000000000001
0.01912 0.978131380212512 0.683687710200129 6.63948473182021 0.0509536601395261 0.956299463176722 0.01911
0.01913 0.984467906932887 0.706589116182273 6.59615791016379 0.0491837990002286 0.964185381734384 0.01912
0.01914 0.825885500094271 0.875279576965152 6.68310846549853 0.0469724558707568 0.985458372403797 0.0191300000000001
0.01915 0.846035303036059 0.849633463823675 6.68539795227041 0.0435446972119841 0.980165228659165 0.01914
0.01916 1.01741527349328 0.654165183283142 6.71171401367705 0.0435305497335115 0.978073795667164 0.01915
0.01917 1.03187298426108 0.970158854832944 6.63190646356661 0.0576890069322427 0.976164572678896 0.01916
0.01918 0.70548860840688 0.792141004124613 6.72449975562968 0.0467103769622427 0.983943224841587 0.01917
0.01919 0.898152900526595 0.70317055053114 6.63928517089369 0.0417345463940676 0.98417725379413 0.0191800000000001
0.0192 1.03583291688933 0.794366078635979 6.67030729228626 0.0546409937489977 0.99837289080573 0.01919
0.01921 1.03764355357823 0.818829709319815 6.71976550151372 0.0529773975773756 0.966332591752687 0.0192
0.01922 0.858714096855808 0.861928896910651 6.66232235862463 0.0499334894228204 0.967695535631832 0.0192100000000001
0.01923 0.892883915340006 0.905366411339111 6.57283465505084 0.0534741262664214 0.981363538327304 0.01922
0.01924 0.866842458761125 0.744875806771081 6.76151089589955 0.0455699923875342 0.99172421300908 0.01923
0.01925 0.999342029855798 0.77394957244879 6.81376405684809 0.054678475896861 0.997097359917532 0.01924
0.01926 0.972123382550476 0.902025196181502 6.66318817008418 0.0505294622143823 0.977724851168348 0.01925
0.01927 0.94719795047084 0.930686432881292 6.64588820627056 0.0505745011338778 0.974082641419302 0.0192600000000001
0.01928 0.975934045977937 1.02091323159946 6.62481929896737 0.0565859176997458 0.989419636770539 0.01927
0.01929 1.01268868214402 0.878838712585254 6.77851474891405 0.0501571526075593 1.0018945662371 0.01928
0.0193 0.806702263416686 0.98465289270304 6.78950449135648 0.0506948713109524 0.974606441070547 0.0192900000000001
0.01931 1.0650376462365 0.80837112446184 6.6194673108582 0.0530614470124927 0.983713586334314 0.0193
0.01932 0.836389006984396 0.93404448786647 6.74869367902359 0.0492848200629203 0.982834282592083 0.01931
0.01933 0.920873118221139 0.890796052424058 6.71318236996761 0.0499788862568839 0.988015946968024 0.01932
0.01934 1.00488902081893 0.976173244368021 6.63475971853248 0.0523391473339357 0.980595398375125 0.01933
0.01935 0.951816448804903 0.879504752860787 6.70671995022871 0.0574993841596193 0.978716556200566 0.0193400000000001
0.01936 0.964153708573185 1.07539385893871 6.64526844635058 0.0574546991576974 0.963581146056902 0.01935
0.01937 0.961877196380128 0.801456694828251 6.67388250339908 0.0461615275696938 0.997025688068011 0.01936
0.01938 0.824638593133319 0.86228332614219 6.77642924996334 0.0522152413025287 0.990463103779124 0.0193700000000001
0.01939 0.95035369226189 0.962998775157884 6.61235551593697 0.0511086927559837 0.955719071095138 0.01938
0.0194 0.959989777955844 0.711510229004327 6.64652445417522 0.0479340104759813 0.991724821457117 0.0193900000000001
0.01941 1.043108779336 0.915020024174449 6.66252568712934 0.0598922850237659 0.981514046100873 0.0194
0.01942 1.06664298958993 1.00675216704069 6.67970988444626 0.0562810563495453 0.98417179195707 0.01941
0.01943 1.06763142723923 0.968416755889798 6.71542590598905 0.0558768893266303 0.984092361814889 0.0194200000000001
0.01944 1.06264472297423 0.929335424750205 6.63409478768981 0.0632866423479189 0.946185357480294 0.01943
0.01945 1.15468466909985 1.09524163155796 6.54977043881393 0.0579276674026058 1.00370018450407 0.01944
0.01946 1.12373953197049 1.03088758775387 6.78400444641508 0.0638845521561504 0.987452468799333 0.0194500000000001
0.01947 0.987812812429807 0.92848602514703 6.71621345428861 0.0494701183489537 0.987521158437466 0.01946
0.01948 1.00820645502864 0.750837445347123 6.68837044781691 0.0511778763655088 0.983932248618752 0.0194700000000001
0.01949 1.19612747267881 0.96496364599901 6.61223568311169 0.0630937881990513 0.984540294606892 0.01948
0.0195 1.05497863925704 1.0090657478626 6.61713104286241 0.0639354496052922 0.984558322847207 0.01949
0.01951 0.99751716641052 0.870323632645052 6.77310235540582 0.0433947092226312 0.998003602562021 0.0195000000000001
0.01952 0.994610566220945 1.00290074724625 6.68737677801575 0.0568676987566323 0.969408050061457 0.01951
0.01953 1.1269633817869 1.02496183722396 6.65765361013224 0.0623720279037064 0.984713384190257 0.01952
0.01954 1.11288877280675 1.02167128830046 6.60378981864196 0.0567240727809269 0.980329310695859 0.01953
0.01955 0.982034540099709 0.831876291446548 6.62865585839975 0.0498018682174828 0.983540741542425 0.01954
0.01956 1.18153309943406 1.06038376540253 6.71935261037707 0.0657824667799008 0.976649445495218 0.0195500000000001
0.01957 1.22100522746034 1.14021846977995 6.70088941684046 0.0632711384043941 0.982583825141643 0.01956
0.01958 1.1997001186762 1.14806940351617 6.5855499006117 0.0658645231864134 0.971608937100086 0.01957
0.01959 1.06514438962543 0.957041863682935 6.67813095717358 0.0519490430904888 1.00297568483852 0.0195800000000001
0.0196 1.26919720059912 1.10326731497175 6.7228225563594 0.0648456467023603 0.979372090367974 0.01959
0.01961 1.20816940076193 1.11217599463736 6.66692180645146 0.0648644140046063 0.987327209261389 0.0196
0.01962 1.08651525701024 1.03344834200163 6.81424761812625 0.0533959067924777 0.986835887564919 0.01961
0.01963 1.17397010318752 0.838133748489425 6.56035577975178 0.0600606480124469 0.966855034029856 0.01962
0.01964 1.13414690877935 1.13867538994007 6.71629932664332 0.0586094015143988 0.99002955514026 0.0196300000000001
0.01965 1.0938732801246 1.04439121346321 6.82535769305531 0.0597249502684566 0.997327677455172 0.01964
0.01966 1.17436536646186 0.764679976550353 6.62851097979444 0.0548608076765368 0.978162813882522 0.01965
0.01967 1.06840942553813 0.882765028640248 6.69719263560419 0.0448320562217903 0.998204836635957 0.0196600000000001
0.01968 1.1771750022515 1.03028796401849 6.68740412195109 0.0665225115635608 0.987595919377837 0.01967
0.01969 1.3001062542823 1.08335586528925 6.70154132584327 0.0791942164611996 0.969664193268643 0.0196800000000001
0.0197 0.971839634961522 0.994126496001911 6.70485360375416 0.0563041343187545 0.987229655757017 0.01969
0.01971 1.12471106438125 0.98553862295501 6.72508681501948 0.0533657699043993 0.984441586242879 0.0197
0.01972 1.17674684327377 1.1155958656135 6.6430558472876 0.0662768705256945 0.986703896887449 0.0197100000000001
0.01973 1.3446168583127 1.08829617738488 6.70410743282268 0.0669181516083461 1.00349811778552 0.01972
0.01974 1.01295237516416 1.04583292932696 6.80834124981794 0.0618788563764975 0.987289734563376 0.01973
0.01975 0.963424273614658 1.00453366687212 6.73676805472811 0.0525862506593439 0.99218734568945 0.0197400000000001
0.01976 1.21490680718835 0.808179960925247 6.73778827443291 0.0567524118074946 1.01361360058356 0.01975
0.01977 1.15064257508866 1.02061183511712 6.75122877637317 0.0575044494964999 0.994787496414419 0.0197600000000001
0.01978 1.1014474791072 1.0515633762159 6.7425575474068 0.0562161520863471 0.984097136089426 0.01977
0.01979 0.911643462605801 1.05976182353223 6.82677767578714 0.0601040088395666 0.992922437350094 0.01978
0.0198 1.1543152003976 1.01085129745406 6.67079722455957 0.0534182952996864 0.996411954746966 0.0197900000000001
0.01981 0.967365107002064 1.04959821424015 6.80888319779879 0.0611472142049445 0.981640768538626 0.0198
0.01982 1.01733604906798 0.907110976186236 6.76735898810157 0.0606473798415397 0.968261496795573 0.01981
0.01983 1.04217077273431 1.09833643162302 6.77326251828125 0.0548103666768936 1.01912051012297 0.0198200000000001
0.01984 1.00870711930279 0.843028463511566 6.85288105058505 0.0571190166185744 1.00490038194316 0.01983
0.01985 1.12861289675753 0.943206481047366 6.83195155534665 0.0579776868679138 1.00990959442004 0.0198400000000001
0.01986 0.94828925678257 1.09521877521845 6.80783781892171 0.049969291307536 0.999511760411621 0.01985
0.01987 1.12894696264426 0.89840091941575 6.83000738569988 0.058624688275876 0.986479922001691 0.01986
0.01988 0.96388652404314 0.923966949717821 6.79418101810527 0.0459834812566244 1.01356615935889 0.0198700000000001
0.01989 1.00563317541765 0.964403712499801 6.90951267348058 0.0536757880029943 1.01103156671412 0.01988
0.0199 1.0013138586861 1.0099213865127 6.90645427787253 0.0576674258974315 1.00018883646702 0.01989
0.01991 1.09227237622566 0.882304607148015 6.79344639604564 0.0533782796474638 1.01804446295421 0.0199
0.01992 1.02521494312475 0.963388620012755 7.00401566227907 0.0568496690991257 0.993359510581855 0.01991
0.01993 1.10880569193557 1.04234678410176 6.76464610548313 0.0622280419832185 1.00711470713826 0.0199200000000001
0.01994 1.15414773157933 0.995888495015705 6.98993791778467 0.0597495327878527 1.03425838677043 0.01993
0.01995 0.990969193601401 0.774911193217163 6.78218422082552 0.047708505686801 0.977105166463422 0.01994
0.01996 1.09860186260439 0.953791107067329 6.83821765728398 0.0495963493774892 1.00167260678598 0.0199500000000001
0.01997 1.17082430321591 0.987928531959283 6.86789608196553 0.0625678724932098 0.991446166384553 0.01996
0.01998 1.05187273144075 0.915590444882936 6.82076539341843 0.0518371820280259 1.02561211208325 0.01997
0.01999 1.02230325498682 1.11274089818775 6.94526341229331 0.0642803399956033 1.00353562676405 0.01998
0.02 1.13385342027686 0.788634450868484 6.93653946057662 0.0466381329663607 1.03088921183999 0.01999
0.02001 1.07012148582739 1.02306136441211 6.86039300979955 0.0610528797507417 1.00705189250132 0.0200000000000001
0.02002 1.06990386049754 0.99877966396157 6.77668576910649 0.0562072353859005 1.01640320386814 0.02001
0.02003 1.09361252178483 1.0480783341847 6.90152601719136 0.0547339332523272 1.02426849864384 0.02002
0.02004 1.22737800612552 1.1057029447372 6.82215390492712 0.0622410812372899 1.01011117579363 0.0200300000000001
0.02005 0.870743783065971 0.993681514617329 6.93135331163194 0.0513975476799448 1.02607522384792 0.02004
0.02006 1.04878292073069 0.842629533717987 6.83297612179024 0.0553291400619976 0.979774338982186 0.02005
0.02007 0.975041234801744 0.898725935723306 6.8340627333398 0.0535805682635907 1.0120380771532 0.02006
0.02008 0.931828753695978 0.896798459033779 6.94645150656373 0.0498380788905458 1.04162716040282 0.02007
0.02009 1.15888612294314 0.894047060848058 6.94814267464272 0.0551434820299558 1.01808536817188 0.0200800000000001
0.0201 1.01092580148836 1.0836681377051 6.95860361464469 0.0619506916245521 0.994113098335065 0.02009
0.02011 1.03682391782106 0.955798612725795 6.81962827332507 0.0600473572260338 1.00871771153622 0.0201
0.02012 0.941976199166536 0.802407659249883 6.88297436321934 0.0462003553198411 1.02494727863916 0.0201100000000001
0.02013 1.04351510131527 0.832558358805698 6.96501741217129 0.053236431604762 1.00303857461777 0.02012
0.02014 1.10784830996003 0.926893500499102 6.89631455653519 0.0691509048855897 1.01359593173231 0.0201300000000001
0.02015 1.05591149598613 1.06331689987048 6.8565282068392 0.0513762073929389 1.00557746088323 0.02014
0.02016 1.00004218231087 0.916490632858509 6.77595136623786 0.0494784668423904 1.0101197409185 0.02015
0.02017 1.33339348709296 0.971690573633484 6.88880341630303 0.0689045272510045 1.01805248650178 0.0201600000000001
0.02018 1.12016104123811 1.11226185000796 6.9173526255954 0.0613603663026348 1.0048980957685 0.02017
0.02019 1.20872771087893 1.07784450899167 6.73413367601622 0.0679432713793285 0.985633128009213 0.02018
0.0202 1.42937474069797 1.0707745467415 6.76683508541192 0.0709882788056384 1.00770047840141 0.0201900000000001
0.02021 1.05683493049735 1.11782227830087 6.88188926277261 0.0642060776551834 1.01171416065497 0.0202
0.02022 1.30569821634551 1.07220443552801 6.92130553017549 0.0682046161625768 1.02827535085436 0.0202100000000001
0.02023 1.18060189074408 1.21224535110871 6.74472714917927 0.066912986787033 0.984931980447695 0.02022
0.02024 1.02387910354636 0.928551761327171 6.82518770557158 0.0554417693092106 1.01631690545413 0.02023
0.02025 1.2376501433813 1.10647820589367 6.90310958214388 0.0700360959193185 1.0147885894958 0.0202400000000001
0.02026 1.07993972191035 1.21441211437879 6.81738397177451 0.063626379313234 0.997171704076741 0.02025
0.02027 1.24149830461376 1.1033939956857 6.96643516138599 0.0651067329047656 1.02428251025142 0.02026
0.02028 1.22849075242425 1.13918993177069 6.72035779135213 0.0711617936147058 0.992512442436286 0.02027
0.02029 1.21514866322428 1.14903567582011 6.78991255380965 0.0626244390808336 1.01901506994843 0.02028
0.0203 1.05422203106569 1.09483893054779 6.87754720911442 0.058425099972326 1.00259573059759 0.0202900000000001
0.02031 1.15997308171378 1.09443951905874 6.84814256289856 0.0719302136466275 1.02316680114209 0.0203
0.02032 1.16211378938662 1.12539068656428 6.93527171650992 0.0610531754163059 1.0194460982881 0.02031
0.02033 1.09188096535684 0.850555311135211 6.85057990763737 0.053129163161851 1.0080191348696 0.0203200000000001
0.02034 1.17506432661317 1.00223967630901 6.994294315166 0.0647289809165885 1.01993691118155 0.02033
0.02035 1.30731077093054 1.17773478280825 6.82236471232717 0.0735497740265284 1.00388947017973 0.02034
0.02036 1.11740274173293 0.985646568460733 7.11866792111197 0.0608368121599596 1.01954232305264 0.02035
0.02037 1.17446795648171 1.18342166769389 6.8130414883431 0.0610897223191699 0.969746715905459 0.02036
0.02038 1.22101176518375 1.1383860660765 6.80209504859698 0.0704872656124147 1.03065072254943 0.0203700000000001
0.02039 1.36306791996552 1.26782037401134 6.9315221818615 0.0693617382668076 1.00556611333726 0.02038
0.0204 1.24094534312427 1.22985666098279 6.89622781706403 0.0701729066233847 0.99593557094015 0.02039
0.02041 1.32333981496338 1.10705186265586 6.81741480868347 0.0698357790879828 1.01495678521411 0.0204000000000001
0.02042 1.11561926121004 1.23728502387169 6.8898228809543 0.0658518996025584 1.00309530523182 0.02041
0.02043 1.18766625065732 1.19370760341716 6.88080612177259 0.065662063559608 1.00405698030797 0.02042
0.02044 1.10803206468689 1.15133315087661 6.83945950510925 0.0541091434368814 1.02898616652315 0.02043
0.02045 1.25216336540151 1.17402555259909 6.87725239644294 0.069371775092019 1.00403055586693 0.02044
0.02046 1.40418434928799 1.17715051343903 6.78400564882047 0.0778053637160226 1.01582382887265 0.0204500000000001
0.02047 1.24752623307047 1.0923949009906 6.88851833617781 0.0653386953759766 1.01870164252207 0.02046
0.02048 1.2804781310354 1.19062290188363 6.81260202595035 0.0693771557990371 1.01114511504383 0.02047
0.02049 1.14678459649519 0.994635407516355 6.89195459699499 0.0681057736824766 1.01996927235909 0.0204800000000001
0.0205 1.23309647112544 1.06014821454267 6.86480566836935 0.0582030174740038 0.999649439526791 0.02049
0.02051 1.13613831408498 1.32541161171237 6.93501274258547 0.0724020731386379 1.03109496345783 0.0204999999999999
0.02052 1.07077406643876 1.14773247984978 7.00651939298746 0.0676932504114481 1.03063666964845 0.02051
0.02053 1.22753673444156 1.06218298810793 6.93017563103551 0.0673947385539475 1.00431919541424 0.02052
0.02054 1.06919732939263 1.21331565890761 6.89579241097425 0.0703768025563385 1.00779585578321 0.0205300000000001
0.02055 1.21697824134123 1.29482220146841 6.89013755330816 0.0770834099596728 0.99602320030842 0.02054
0.02056 1.3226808183326 1.17962514744195 6.87481679208443 0.072079137834958 1.01370693856395 0.02055
0.02057 1.2044623054133 1.1738362254914 6.91560408590242 0.0656401095853118 1.02803161355402 0.0205600000000001
0.02058 1.31913075638776 0.995653252148523 7.02573157112612 0.0684544831737323 1.03179737608302 0.02057
0.02059 1.37599680137329 0.967191025198294 6.97704661227898 0.0635871431149381 1.01951267620011 0.0205800000000001
0.0206 1.01745903552146 1.16240994080524 6.95586952051326 0.0562516583882381 1.04197286307933 0.02059
0.02061 1.29310558000007 1.0691503223525 6.92854504882187 0.0666740881961585 1.02679006459107 0.0206
0.02062 1.31546799632252 1.24252855765536 6.95972847457301 0.0679166706921055 1.03006676547244 0.0206100000000001
0.02063 1.16127200841173 1.06451699939137 6.99557059479577 0.0610732719344783 1.03493462565108 0.02062
0.02064 1.0398386843983 1.00989591621062 7.0442548317332 0.0579581078494023 1.04048638721872 0.02063
0.02065 1.08376172622793 0.870519223995424 7.14572509603141 0.0492587122540893 1.03977992138339 0.0206400000000001
0.02066 1.23371925338602 1.0590620674164 6.99136302455391 0.0650081265468112 1.01933185913074 0.02065
0.02067 1.24128958624178 1.20689533124263 6.96793968720473 0.0653568483302553 1.03961962784176 0.0206600000000001
0.02068 1.16129230969031 1.14366808553361 7.03577229507486 0.0618234204354881 1.04735665362254 0.02067
0.02069 1.17754780538431 0.951959822956569 7.08363090813415 0.0564134145740609 1.04727730114946 0.02068
0.0207 1.14809264323561 0.980002932189711 7.09308309084393 0.0637113903190989 1.02475907011893 0.0206900000000001
0.02071 1.07108725526089 1.03996410958459 7.06298742309252 0.058733998884461 1.04488991641942 0.0207
0.02072 1.16172188783755 1.05034351671813 7.17151027243763 0.0608226689599247 1.051010745859 0.02071
0.02073 1.23326389186402 1.05247628749615 7.07046034685464 0.0652493001880106 1.03227941390409 0.02072
0.02074 1.15887468147691 1.17613227487595 7.01167664110909 0.0687782358522013 1.04459288249284 0.02073
0.02075 1.03043169432776 0.944691332637114 7.14541400101481 0.0594246913003047 1.04987278799618 0.0207400000000001
0.02076 1.19831501171642 0.971142749630224 7.08840990255033 0.0581069299085014 1.05002021016279 0.02075
0.02077 0.991694096363412 1.01079664869123 7.01969073025761 0.0541852192260023 1.02434368773838 0.02076
0.02078 1.30935539143808 1.1826287683659 7.01291328692056 0.0696652335551426 1.02612814607597 0.0207700000000001
0.02079 1.08363852961578 0.905980613660425 7.10264822410113 0.0567660921152885 1.0382546050468 0.02078
0.0208 1.23263357762051 0.842054360960173 6.9591177699092 0.0628511932892123 1.01003212479749 0.02079
0.02081 1.21891694443187 1.10805772204737 7.08169029776196 0.0585110764284542 1.04926242424227 0.0208
0.02082 1.3108545146409 1.10404146849487 7.07471093450419 0.0706556393736938 1.03080158762383 0.02081
0.02083 1.34494872813928 1.0217344016452 7.05425146772276 0.0659636487531309 1.03063041234613 0.0208200000000001
0.02084 1.1456881944138 1.29503907513906 6.9899174579463 0.0741492636565862 1.01313556488904 0.02083
0.02085 1.16348720770791 0.859618333766468 7.04782446316066 0.0550363930704308 1.05328638042184 0.02084
0.02086 1.23181866038609 1.16982390463706 7.22925718741964 0.0657189926921916 1.04758062226987 0.0208500000000001
0.02087 1.13507951787965 1.21048815884014 7.01163798326003 0.0753669306069887 1.00334517067831 0.02086
0.02088 1.11709576542326 1.23381042181864 6.92231153784235 0.0649839669084235 1.02253729526077 0.0208700000000001
0.02089 1.33363575196136 1.22709030964971 7.06173179264323 0.0691197968061273 1.05423385090768 0.02088
0.0209 1.32991687045231 1.22185737505879 7.02736074862464 0.0641619145634436 1.02374161800551 0.02089
0.02091 1.08375898757544 1.1566147645812 6.95475258084749 0.0632403009342414 1.01749473848091 0.0209000000000001
0.02092 1.15163706211639 1.11283279761977 7.02421991609497 0.0636933585198846 1.0373112336011 0.02091
0.02093 1.14828688221844 1.12171403098033 6.95838512074274 0.0613189204687827 1.02824187946484 0.02092
0.02094 1.29751343885011 1.14811836479336 7.02117713732273 0.0770142666605533 1.0521262861342 0.0209300000000001
0.02095 1.10663239447269 1.03465767573975 7.10400130425115 0.0569019398651651 1.03631792131966 0.02094
0.02096 1.32666837308656 1.16840960324327 6.99717220294219 0.0720482787377518 1.03554365350688 0.0209500000000001
0.02097 1.34772676718455 1.16101326901356 6.98330734199838 0.0691564010767694 1.02150568871804 0.02096
0.02098 1.37634879822408 1.17511531078841 6.97579164748547 0.0653771482268324 1.05224005341401 0.02097
0.02099 1.25725600246808 1.26711339219099 7.12977929836897 0.0648870570824878 1.01967607932415 0.0209800000000001
0.021 1.32019694406634 1.35285852112387 7.02730080097922 0.0744813758913266 1.03604941057978 0.02099
0.02101 1.47424323749514 1.20878769409366 7.01715328588291 0.0770939652953265 1.01993558617812 0.021
0.02102 1.35295495780321 1.15952057371511 6.93101491709205 0.0697983918635492 1.03467926217418 0.02101
0.02103 1.2862746549336 1.19340629544975 7.07275933820589 0.067076569108299 1.05260338764374 0.02102
0.02104 1.42385787034366 1.38345946394198 6.94584924002844 0.0804147427021336 1.02657766747723 0.0210300000000001
0.02105 1.41492670255872 1.1947909342192 6.98277286534506 0.0678919455687452 1.03605815988106 0.02104
0.02106 1.50204980014221 1.11897577969156 7.09855892091798 0.0749007802939016 1.03935766539915 0.02105
0.02107 1.37906232819156 1.30526625944419 7.12541899887063 0.081529020566398 1.01452944740783 0.0210600000000001
0.02108 1.28427032439933 1.21684913988172 6.91686997439406 0.0677421225442158 1.04306860103193 0.02107
0.02109 1.37120777995735 1.207853289871 7.09971376736727 0.0810368027789548 1.02742108279791 0.02108
0.0211 1.33394097085307 1.46966213031107 6.95376015770172 0.0816436025565519 1.02682592827334 0.02109
0.02111 1.27032005987221 1.19604221759424 7.07019022436624 0.0721811038622784 1.03596857301231 0.0211
0.02112 1.42101476212034 1.21312871175091 7.06837172724949 0.0701054658919896 1.0083827374251 0.0211100000000001
0.02113 1.29657237180394 1.27974115469141 7.08462079944947 0.0786465292022713 1.02878084213283 0.02112
0.02114 1.13797881431569 1.20909127513687 7.09007992907422 0.0651579277374915 1.04538464135903 0.02113
0.02115 1.38498248457096 1.29217679820535 7.08543355388757 0.0692608078701762 1.04270193000094 0.0211400000000001
0.02116 1.49163435293195 1.18543471943072 6.98168288130447 0.0757178786183662 1.02551577418695 0.02115
0.02117 1.30582407090545 1.32142180741491 7.12220776540143 0.0728322886654728 1.0445385728942 0.0211600000000001
0.02118 1.28804055976807 1.37248834310614 7.15656927939023 0.07361625962571 1.0412498354301 0.02117
0.02119 1.24657588095222 1.21743738334327 7.05716998438681 0.0767980155574262 1.03066036609391 0.02118
0.0212 1.27375171432356 1.27940346385462 7.1190192588573 0.0707307855698495 1.0454827018983 0.0211900000000001
0.02121 1.34539857721149 1.17075475728806 7.1312976881203 0.0688798503669118 1.04691442096019 0.0212
0.02122 1.17336776639725 1.09584054575814 7.08940033816668 0.0668466695898338 1.02390419875361 0.02121
0.02123 1.2373246230487 0.987189322204263 7.03036550550036 0.0614048236699054 1.05665983994123 0.0212200000000001
0.02124 1.33996505492903 1.25160585232648 7.11479145592809 0.0710908070748305 1.05436917314863 0.02123
0.02125 1.33847668918678 1.3205742025489 7.15692100651035 0.0763427235102373 1.02061083611899 0.02124
0.02126 1.28655481529591 1.26797089520159 6.96154804994598 0.0721859993170988 1.05135031082519 0.02125
0.02127 1.1686448841794 1.09613013164588 7.16503563563748 0.0642666493705385 1.04726561631396 0.02126
0.02128 1.36038064267854 1.25252094325915 7.0535810347039 0.0843491292866121 1.03868829132136 0.0212700000000001
0.02129 1.30284684567935 1.39276338734664 7.16827658684734 0.0708879086725144 1.05394977258194 0.02128
0.0213 1.15253199526173 1.15851108436392 7.2684081188128 0.058646451155128 1.06934689145121 0.02129
0.02131 1.37258668301354 1.2113246508801 6.98609096814396 0.0699245658065141 1.04082097081845 0.0213000000000001
0.02132 1.30382307754985 1.24019440954837 7.21900794159671 0.0761314847472557 1.05541766013214 0.02131
0.02133 1.23011565335753 1.04266052175683 7.28401591626126 0.0621526594060851 1.0743549637201 0.0213200000000001
0.02134 1.33001518417693 1.19338068292628 7.2154786232642 0.0659248706578603 1.05742341053415 0.02133
0.02135 1.3504951748835 1.09034497422202 7.27647572061704 0.0700884080096583 1.05403404875676 0.02134
0.02136 1.11751601554363 1.18065169404486 7.22306741614893 0.0646848736458962 1.04377798611929 0.0213500000000001
0.02137 1.12886583805818 0.986734324827733 7.16123930440487 0.0556236297047562 1.06017887759562 0.02136
0.02138 1.25847416626355 1.23302669585072 7.1410055171399 0.0675633096002087 1.06387570505428 0.02137
0.02139 1.42617432512088 1.21039041586144 7.25726578731638 0.0727307233152423 1.06597338760684 0.0213800000000001
0.0214 1.22076830716891 1.14695296665218 7.20547202172148 0.0713722644859229 1.06135196595678 0.02139
0.02141 1.24118961071902 1.16924715434016 7.26465461945251 0.0700148098105313 1.06168624887154 0.0214000000000001
0.02142 1.24933628382189 1.2725271047099 7.1500443062108 0.0718527941461144 1.05656566535116 0.02141
0.02143 1.29294868617041 1.34827868711423 7.10214623330755 0.076212179889148 1.06787432590759 0.02142
0.02144 1.21289799591903 1.29653985966523 7.26558484052324 0.0711297349428925 1.06505270764894 0.0214300000000001
0.02145 1.30754592195076 1.16654948220033 7.09760967582328 0.0714017204730859 1.05359537184158 0.02144
0.02146 1.38057654611852 1.24933826757928 7.13858547519881 0.0698967794816417 1.07423884345595 0.02145
0.02147 1.32145863443137 1.35207206322518 7.25710027748472 0.0735982501840355 1.05881167548729 0.02146
0.02148 1.26746114110732 1.16712958886773 7.23960438358806 0.0727115229316215 1.06863034726148 0.02147
0.02149 1.37830174357454 1.13994047038226 7.1533656756043 0.0662812610569337 1.05827322444297 0.0214800000000001
0.0215 1.32268321024779 1.20352930623837 7.21154760860088 0.0667629065251117 1.05998104016686 0.02149
0.02151 1.090961790951 1.24267522323734 7.20723182014461 0.0702743971947439 1.04523562724309 0.0215
0.02152 1.22442345335239 0.952829493909258 7.30624935499208 0.0598247142007682 1.07823910702899 0.0215100000000001
0.02153 1.3092168917485 1.17756515783209 7.26352046716139 0.0671605395571571 1.06502248178844 0.02152
0.02154 1.50490237466849 1.4394721929821 7.10257800518402 0.0880802764023298 1.0491426680592 0.02153
0.02155 1.13050615638659 1.22144798240007 7.10699911950079 0.0620383475567733 1.03308010011414 0.02154
0.02156 1.18816475105611 1.20721423597085 7.1665305607214 0.0717496844908981 1.08124565930824 0.02155
0.02157 1.43009351461928 1.21187714947367 7.25037473958133 0.0748968932044799 1.0820556930271 0.0215600000000001
0.02158 1.38555355929929 1.42451288535014 7.04581682715801 0.0753436528062381 1.04262844748513 0.02157
0.02159 1.26217528705013 1.34031523453092 7.13476657873022 0.0736469807100763 1.08040933620251 0.02158
0.0216 1.58091520149154 1.43400846804625 7.31125610977367 0.0806850649379662 1.07671577604506 0.0215900000000001
0.02161 1.46985645462059 1.71085915543204 7.19392483527016 0.0942460158889873 1.06166279153702 0.0216
0.02162 1.32003721016874 1.36899357287743 7.18026203679412 0.0720785877559437 1.06274317258608 0.0216100000000001
0.02163 1.37216159323422 1.28541071102465 7.27142235489132 0.0702372652192236 1.06852786587635 0.02162
0.02164 1.59462683614612 1.46492181337616 7.22476060153881 0.0885179788163754 1.05760016504676 0.02163
0.02165 1.51869517290171 1.56555555867899 7.18726922335531 0.0856673229055229 1.07386506992929 0.0216400000000001
0.02166 1.44831682675826 1.40874815450881 7.2174941238105 0.0789578946673541 1.06322170994001 0.02165
0.02167 1.33414907457938 1.40704407575714 7.22059131732749 0.0758457382442118 1.06267890445864 0.02166
0.02168 1.50610129798727 1.3697335291099 7.14744270168455 0.0801544097533051 1.04457534023176 0.0216700000000001
0.02169 1.53729862412799 1.56727016443931 7.05019174613181 0.0882331027081758 1.04795981905238 0.02168
0.0217 1.51465154356073 1.56052573863528 7.20984537096863 0.0905926483523522 1.07305945273545 0.0216900000000001
0.02171 1.49240243556424 1.46903360216578 7.26703062369848 0.0795993736457954 1.06976089204751 0.0217
0.02172 1.41459659492799 1.48851989849499 7.14438036689327 0.082113850500376 1.05814618931377 0.02171
0.02173 1.36847632081526 1.32164232097271 7.17728413761985 0.0754091052884407 1.0735866162432 0.0217200000000001
0.02174 1.40481205461605 1.39407311634393 7.17904177284034 0.0749856909802371 1.06349717485961 0.02173
0.02175 1.53631013073304 1.58901753870827 7.24921385761261 0.0936382679509444 1.06041666753936 0.02174
0.02176 1.37620145846178 1.44010011682228 7.22915358432128 0.0731500214109767 1.09244800857314 0.0217500000000001
0.02177 1.4255101865982 1.4363836253735 7.29302486705365 0.0812449577527159 1.07427002440543 0.02176
0.02178 1.50549845243774 1.529816716106 7.18671325163919 0.0918107827480761 1.0467468142091 0.0217700000000001
0.02179 1.35400225350562 1.38961974609895 7.27821084090011 0.0705725969168143 1.07220886620915 0.02178
0.0218 1.36456081371527 1.31504965284064 7.2203719517449 0.0800252607956964 1.08249644280315 0.02179
0.02181 1.60715750773341 1.34047936174344 7.32922069996507 0.0816820971618264 1.06614221736031 0.0218000000000001
0.02182 1.31492060435094 1.41563023826909 7.31539550617085 0.0711744655898216 1.0802443610199 0.02181
0.02183 1.28515251149833 1.37003293237879 7.35734449613768 0.0753136565860874 1.07283860136568 0.02182
0.02184 1.3942938035368 1.23241293269608 7.28457395510262 0.0700920383412201 1.06891248235342 0.02183
0.02185 1.26245018187648 1.43018717831452 7.33151532424458 0.072941244189083 1.07570834754919 0.02184
0.02186 1.43978807424612 1.38390487097893 7.30539562141827 0.0739829745447795 1.06991757984842 0.0218500000000001
0.02187 1.44423695259899 1.37346564833544 7.28347052846869 0.0804789307343152 1.09061281383689 0.02186
0.02188 1.41248469765969 1.47419519141911 7.31809202365323 0.0786862977972927 1.07144275273967 0.02187
0.02189 1.4538023708938 1.48716729813176 7.2263714352778 0.0818561267051092 1.04639301819984 0.0218800000000001
0.0219 1.40468546616818 1.43262718707833 7.26897025843834 0.0842099914174443 1.07137438370856 0.02189
0.02191 1.39006732907257 1.17636951676341 7.35556479443088 0.0700506476269701 1.08444989932484 0.0219
0.02192 1.42465404939336 1.45533105131882 7.31199483611915 0.0812006415598674 1.07047010528981 0.02191
0.02193 1.49628439793835 1.59457476618211 7.18694978310972 0.0888419446579026 1.08605869844089 0.02192
0.02194 1.57416904750729 1.43385062249672 7.40624057882138 0.0867146679526868 1.09049767363175 0.0219300000000001
0.02195 1.22774317925427 1.41906701076582 7.30599852024372 0.0776911526111505 1.06047371391438 0.02194
0.02196 1.34685734565784 1.55071411451578 7.18973575565045 0.090998153374797 1.07802603985982 0.02195
0.02197 1.5238567736558 1.42798774573627 7.34865180280153 0.0830661425083204 1.0776078947189 0.0219600000000001
0.02198 1.52789761928033 1.29554713028737 7.29084249729385 0.081914481965632 1.09042607539691 0.02197
0.02199 1.45571949462817 1.34426449612275 7.33054957680079 0.0702869107723869 1.0946682485222 0.02198
0.022 1.26677991585649 1.54500208954103 7.32694830417754 0.0778468977524053 1.07081288406419 0.02199
0.02201 1.47274631272322 1.33257028664268 7.26942276402694 0.0837733674005217 1.07060901765703 0.022
0.02202 1.36866023290923 1.25846572818242 7.36634966256914 0.07396785414259 1.10031600424385 0.0220100000000001
0.02203 1.58724260617853 1.41048686802595 7.37869883348756 0.089490027114027 1.07908594149409 0.02202
0.02204 1.56389911777066 1.5510936976381 7.38070794278017 0.0916194982350864 1.07745949858526 0.02203
0.02205 1.50776438578269 1.45226167754345 7.34206426247853 0.0876940921776909 1.08280981736256 0.0220400000000001
0.02206 1.57015325093232 1.47101455131945 7.34900190168306 0.0812417275957433 1.08154924537741 0.02205
0.02207 1.51079811607585 1.25731274635135 7.42355479387843 0.0802253567169241 1.08251944812342 0.0220600000000001
0.02208 1.43001562845226 1.29243437392358 7.37681443536567 0.0842960905169715 1.07456677884303 0.02207
0.02209 1.37641612655272 1.53386871177588 7.26121191475747 0.0845070113094889 1.07849913756376 0.02208
0.0221 1.53214476188371 1.4443349161512 7.28757389808067 0.0833059643570866 1.08820863058203 0.0220900000000001
0.02211 1.44813678750496 1.47447972253257 7.41140020486201 0.0784952357106911 1.0738530588538 0.0221
0.02212 1.55355244630151 1.58239338537104 7.38913517851319 0.0839797240521254 1.09660696734254 0.02211
0.02213 1.31116716062135 1.2951679521501 7.27105293089978 0.0674721748332691 1.10287132872819 0.0221200000000001
0.02214 1.56429768711761 1.53621401384503 7.48141183660377 0.0901348056378957 1.09326116702192 0.02213
0.02215 1.39125682862459 1.58702961089396 7.30715151045599 0.082490726551707 1.07203576931831 0.0221400000000001
0.02216 1.33416323073528 1.64016117604143 7.33133028924255 0.0853133222070615 1.07397646589745 0.02215
0.02217 1.45637290887543 1.40015089898913 7.45689681612722 0.0830128902611094 1.1109766134913 0.02216
0.02218 1.33740751062752 1.56117505503169 7.43353984625779 0.0842700525767454 1.07482340151711 0.0221700000000001
0.02219 1.31673167560828 1.36184421906687 7.31466433541964 0.0767771863498525 1.07759714901729 0.02218
0.0222 1.5023170944218 1.57072825719491 7.42086324398929 0.0881133561623123 1.09626465147067 0.02219
0.02221 1.44503947889516 1.43142960616024 7.35662387307808 0.0887281277725782 1.05877020980633 0.0222
0.02222 1.37992108739951 1.54794952443279 7.31955796582845 0.0759181292242819 1.08956087339402 0.02221
0.02223 1.50223131168907 1.48722855096457 7.27765813322899 0.0859014196068258 1.08557810707039 0.0222200000000001
0.02224 1.53850986439549 1.47505327794695 7.3353322081047 0.0897928671333653 1.08166098089941 0.02223
0.02225 1.62841806684211 1.65395648640668 7.3269846692876 0.0955086583258548 1.08404301437986 0.02224
0.02226 1.52337081809066 1.56705798836114 7.29307505069763 0.0786239675300771 1.11473739037266 0.0222500000000001
0.02227 1.66964068503854 1.58698849509277 7.3819978005467 0.0860419099817979 1.1008526933928 0.02226
0.02228 1.73130360059336 1.74883241994893 7.31571988912796 0.0964487293994084 1.09721924502424 0.02227
0.02229 1.47912627735988 1.63813317486612 7.36683899090198 0.0870407704530073 1.1019531495359 0.02228
0.0223 1.58703930043573 1.51655702939093 7.33318558357811 0.0926174749418358 1.07778172139982 0.02229
0.02231 1.45972589746238 1.48738320640262 7.27872336580817 0.0819379322804279 1.08387433115548 0.0223000000000001
0.02232 1.55407882522097 1.51899127284921 7.30598580146925 0.0858148663756111 1.09044302438067 0.02231
0.02233 1.66510957427491 1.498997753812 7.46949059445301 0.0840625967793646 1.08827394223713 0.02232
0.02234 1.48984197808088 1.45312849769606 7.37245089168942 0.0817464887709685 1.06852753031895 0.0223300000000001
0.02235 1.60849031569423 1.76619361313586 7.34412469378419 0.087457152113444 1.09181381570836 0.02234
0.02236 1.46714764555127 1.62612357709166 7.33339858288081 0.0942690193290295 1.09103053401639 0.0223500000000001
0.02237 1.7286730231301 1.44355982347927 7.4304301447705 0.0896198894618429 1.08214569186642 0.02236
0.02238 1.5042590420366 1.40189699988922 7.4659648772308 0.0773950172636245 1.09776551189469 0.02237
0.02239 1.40669248126026 1.47472183717407 7.37353870886906 0.0884268838358386 1.08192433999483 0.0223800000000001
0.0224 1.48910389363932 1.5976904964473 7.37746539524067 0.0854619820933942 1.10970197082848 0.02239
0.02241 1.40223778612611 1.40741590214698 7.39217016630081 0.0815678613301333 1.09517962786713 0.0224
0.02242 1.48236177168348 1.46595875496155 7.38066423068778 0.0825603261440186 1.09838960611834 0.0224100000000001
0.02243 1.46914425471304 1.43583824901509 7.56413443989408 0.0834008544440747 1.10786550410373 0.02242
0.02244 1.50988570637199 1.43567276697097 7.43566592208319 0.0870825978974811 1.09659840243559 0.0224300000000001
0.02245 1.43022524581243 1.510267089032 7.2805923884652 0.0804076422273087 1.10439045242072 0.02244
0.02246 1.72591431965919 1.50486638149555 7.42104202261993 0.0919514561346959 1.12243783838443 0.02245
0.02247 1.40349370066408 1.46228807962321 7.49759671460217 0.0767042165701287 1.06280862204972 0.0224600000000001
0.02248 1.51119246595498 1.48122243737845 7.367860959552 0.0830749671331793 1.08315341877342 0.02247
0.02249 1.45569471186918 1.53770355650266 7.43413049237093 0.0882402767067695 1.10251259492987 0.02248
0.0225 1.66975302072139 1.62716281274067 7.3572623304307 0.0979871812944159 1.0632886535385 0.0224900000000001
0.02251 1.54258652265726 1.6596001489528 7.34393079969375 0.0852623429136731 1.0992367746498 0.0225
0.02252 1.60464247247886 1.63271943743413 7.4018319277356 0.0965915110466612 1.10150119788057 0.0225100000000001
0.02253 1.66004738613461 1.54646054102123 7.33691355570904 0.0857873981922611 1.10593073192756 0.02252
0.02254 1.54087676088418 1.47311666005855 7.35552733199755 0.0778029633769197 1.11564811224662 0.02253
0.02255 1.7420738275084 1.62101794368845 7.38956989258674 0.0915229400280965 1.1058536069492 0.0225400000000001
0.02256 1.43343577675967 1.52159116929666 7.44239211532417 0.0805517040144996 1.10214777128078 0.02255
0.02257 1.53902739938823 1.44021817101154 7.46151642485249 0.0843337176330165 1.09215056962955 0.02256
0.02258 1.57026227143876 1.59977008917 7.44564352138481 0.0867908733719979 1.10082490895376 0.0225700000000001
0.02259 1.54613618567288 1.5304487646841 7.50169005566522 0.0927788194153396 1.10987291002696 0.02258
0.0226 1.55080149394844 1.7284971447459 7.44999932764457 0.0929464409513131 1.10706588286089 0.0225900000000001
0.02261 1.50362016140553 1.52419564949255 7.39277123798376 0.0852874836846948 1.0977935884674 0.0226
0.02262 1.68246439638111 1.52609667704381 7.62572043507969 0.0910175112425896 1.1118023183033 0.02261
0.02263 1.54525813689249 1.52894919934418 7.49181980435999 0.09158049376274 1.08922473846329 0.0226200000000001
0.02264 1.26881886967466 1.39726989337009 7.49851150670312 0.0780910204751399 1.10459420742998 0.02263
0.02265 1.64522928337846 1.67852599712712 7.44731755887221 0.095474118036843 1.10857029696523 0.02264
0.02266 1.58608436030906 1.53255997492247 7.41525715578413 0.0798960104433576 1.1174067132065 0.02265
0.02267 1.60454971546801 1.62891106158126 7.50465110604717 0.0964690935325355 1.10637914080979 0.02266
0.02268 1.57429532418901 1.65618012424581 7.39482574224523 0.0943699565973421 1.09398515594901 0.0226700000000001
0.02269 1.75005240721832 1.59113297658973 7.50213287148946 0.0874544288328084 1.12716540340251 0.02268
0.0227 1.52387916747546 1.39616936215857 7.49879064788661 0.091939342901788 1.09865483733432 0.02269
0.02271 1.56409079975267 1.50679803394229 7.47592981896543 0.0873473909920668 1.10302203048818 0.0227000000000001
0.02272 1.67055624029906 1.66238006272437 7.40433457196458 0.0859455199109854 1.08231791034037 0.02271
0.02273 1.61414294166691 1.65671965615628 7.3793818001735 0.0993908161245358 1.11030040962855 0.02272
0.02274 1.54845980936984 1.65764925179902 7.3959979426256 0.0823909362600036 1.09935855468104 0.02273
0.02275 1.69119840667094 1.77451957691426 7.48023709339554 0.0966633878589621 1.09822091362755 0.02274
0.02276 1.57270435093183 1.58575091857994 7.4053291400184 0.0900217753365478 1.10579607628945 0.0227500000000001
0.02277 1.61127558338292 1.62267830138774 7.42060606998082 0.088633526890143 1.08201555402735 0.02276
0.02278 1.45295530111411 1.77628158088621 7.42800915678835 0.0923961151752761 1.11080379030768 0.02277
0.02279 1.57558312878243 1.66879643545846 7.50713002413899 0.0909642797494143 1.13466715534858 0.0227800000000001
0.0228 1.65511331817322 1.58287636600059 7.42775737468356 0.0942603124699643 1.09917802793561 0.02279
0.02281 1.47511407014566 1.63725294652932 7.52864627181804 0.0826131028617654 1.1280672580059 0.0228000000000001
0.02282 1.59536254231574 1.58341311552915 7.50999861520022 0.0955944854468818 1.09123037684122 0.02281
0.02283 1.53886908672335 1.72246561151693 7.42156893497767 0.0898430229100793 1.10599264171643 0.02282
0.02284 1.50641808313667 1.55287802291018 7.44305374379167 0.0872302434987977 1.10253743720242 0.0228300000000001
0.02285 1.48190109232829 1.59325226559887 7.60496856344659 0.0854433778282858 1.11409954462482 0.02284
0.02286 1.58824274391904 1.73580246849009 7.55208919677953 0.0954131306626417 1.12450785681472 0.02285
0.02287 1.58713661520263 1.7279164750974 7.41564588749495 0.0914095958383866 1.11876693703412 0.0228600000000001
0.02288 1.63605691832071 1.73164542849142 7.44245069204309 0.0966866983968442 1.11179172841201 0.02287
0.02289 1.71619389683897 1.55915037534603 7.56593404869801 0.0918285207895802 1.10489469144556 0.0228800000000001
0.0229 1.79101947889817 1.63659459650397 7.48945773779328 0.0994520123234486 1.10263619245734 0.02289
0.02291 1.56755380746152 1.5994276162574 7.54729343310833 0.0900122973168584 1.09965319311286 0.0229
0.02292 1.48894408131391 1.62354873471928 7.44551424554166 0.0875907414100726 1.09453291644049 0.0229100000000001
0.02293 1.59260984053838 1.74533255818863 7.51117920234566 0.0891952038709587 1.12803037783606 0.02292
0.02294 1.728826844763 1.83996843370066 7.38942697357108 0.0993582793232502 1.10600712846648 0.02293
0.02295 1.6149935437125 1.71414941173671 7.51875325206063 0.0866695424109407 1.14094829076599 0.0229400000000001
0.02296 1.83360697935739 1.68101601769272 7.50034203110977 0.103054055337709 1.09307367214851 0.02295
0.02297 1.40067892691598 1.66357681493428 7.54824474767782 0.0799775266498333 1.10234959932214 0.0229600000000001
0.02298 1.60957782187313 1.72445095873666 7.55536612207481 0.0962101054603989 1.11235641651193 0.02297
0.02299 1.54983396304971 1.65506280550227 7.51736159044805 0.0900844250837022 1.11868193059267 0.02298
0.023 1.4603075944113 1.57559541978367 7.67107445068906 0.0815698890031133 1.14375752257707 0.0229900000000001
0.02301 1.54448512006656 1.678348258033 7.56752898124866 0.0887719392842525 1.10627402019843 0.023
0.02302 1.56855254735052 1.61733535097934 7.65262434747894 0.0917382128831525 1.14521242511939 0.02301
0.02303 1.74182728829466 1.80567010378751 7.56993517933547 0.0984015464712379 1.103165368059 0.02302
0.02304 1.70044195683187 1.68072004608918 7.48983231135418 0.0959902496020101 1.09762598193502 0.02303
0.02305 1.47546262911827 1.63413896433941 7.55023408675768 0.0830726825805892 1.14849251660794 0.0230400000000001
0.02306 1.63627629360548 1.68924344142479 7.51923951038661 0.0938978023750592 1.11086047685293 0.02305
0.02307 1.54692637593832 1.72144264463021 7.53093006336921 0.0903291983883878 1.1090808795778 0.02306
0.02308 1.69787965357882 1.7641722989661 7.58242153539704 0.0923874590904362 1.15339570977564 0.0230700000000001
0.02309 1.59541354581862 1.69820667055687 7.75867193295802 0.0916745594339408 1.11833282414938 0.02308
0.0231 1.52713649804355 1.59378434074589 7.59188413972094 0.0883050409887692 1.09950139142381 0.0230900000000001
0.02311 1.83031113851152 1.67760487926734 7.61454723665309 0.0968370359318472 1.12000363009411 0.0231
0.02312 1.63693274069972 1.67042714149928 7.59776113813959 0.0955734304695204 1.11092148081848 0.02311
0.02313 1.59549179887336 1.62865388963236 7.67962720871403 0.0940836066086657 1.13522445045531 0.0231200000000001
0.02314 1.69288558783876 1.70943253129642 7.69988608513561 0.094815925598062 1.13329026298837 0.02313
0.02315 1.65959913596268 1.67865470759854 7.61524731411022 0.097953935945864 1.1296319562483 0.02314
0.02316 1.55226132574123 1.71308062486824 7.62407879043736 0.0957641881314871 1.13076001406506 0.0231500000000001
0.02317 1.63623195822069 1.68005823975906 7.56849412141779 0.10063499656434 1.12285028195982 0.02316
0.02318 1.64442703673454 1.66925929004901 7.49472643372056 0.0958835569341367 1.10986801339561 0.02317
0.02319 1.80158051205677 1.63777089339678 7.59411805290324 0.0993096485639415 1.12292263891386 0.02318
0.0232 1.70033940960503 1.5960019219543 7.61111378545483 0.0917129661682283 1.13820954926662 0.02319
0.02321 1.75894217458738 1.85115158597636 7.43716693323637 0.0966862639899005 1.11170139990202 0.0232000000000001
0.02322 1.83439205225534 1.99598917206282 7.3395087661497 0.110823697535995 1.12659425601755 0.02321
0.02323 1.79793540531348 1.69754794744204 7.49747404770703 0.0968995730261087 1.12999881024625 0.02322
0.02324 1.72354865027596 1.64827084008684 7.63218685957889 0.0965314136204122 1.12900822227096 0.0232300000000001
0.02325 1.79244549949351 1.84802540056184 7.60252921391956 0.0957668572442 1.09845915297104 0.02324
0.02326 1.6214455602211 1.79109573561179 7.42981009504576 0.0894345004625175 1.12312990109817 0.0232500000000001
0.02327 1.75853419195135 1.73008999865233 7.53846787670398 0.0983791728357748 1.14452701589922 0.02326
0.02328 1.94674264838385 1.78184910450675 7.58522729575566 0.100095229983277 1.11287007179065 0.02327
0.02329 1.86638171757464 1.94938688811704 7.48041613164349 0.107707306523272 1.11386455383138 0.0232800000000001
0.0233 1.95990683381456 1.68925571822385 7.56253615466617 0.102009756298169 1.12254397557471 0.02329
0.02331 1.70640250962967 1.86690192259174 7.63697636852292 0.101075040207843 1.11118239726475 0.0233
0.02332 1.70759222764282 1.7807372889127 7.45287523476731 0.0988077569238569 1.12781241839495 0.0233100000000001
0.02333 1.70378437329211 1.63562253040123 7.59098451447565 0.0939740836364644 1.12227406087797 0.02332
0.02334 1.86620614258069 1.9689985286889 7.60413976386591 0.114130150713999 1.10897516037199 0.0233300000000001
0.02335 1.79435820687824 1.9092313471846 7.4417617793773 0.0998993581505022 1.09792627190259 0.02334
0.02336 1.72016328818022 1.79605494539613 7.55780257466699 0.101551807574232 1.12749245486001 0.02335
0.02337 1.8374555294807 1.88561009509874 7.4947652629456 0.106413633148958 1.11831165394649 0.0233600000000001
0.02338 1.80123996311561 1.79994450271905 7.64430241159073 0.0957713156888333 1.15823926782222 0.02337
0.02339 1.8228497458349 1.80236360062447 7.59070547312743 0.101009357172836 1.11463095121575 0.02338
0.0234 1.72935433294016 1.91138389566211 7.51336189893846 0.0994240907969838 1.1227056877926 0.02339
0.02341 1.67708473908931 1.81200564512878 7.53398325821959 0.099591127372138 1.14196849044367 0.0234
0.02342 1.69945104023338 1.83230459316525 7.61022332205402 0.100126830382887 1.1145442417961 0.0234100000000001
0.02343 1.56372160389597 1.73944390912268 7.66300112974414 0.0932246501757947 1.13300035215708 0.02342
0.02344 1.83503907872692 1.8047455007299 7.58378968521174 0.0993486784838363 1.14402809906983 0.02343
0.02345 1.69064145529663 1.83248615424669 7.67523746403198 0.0977683872471762 1.13760943667802 0.0234400000000001
0.02346 1.75550827159349 1.8292766875537 7.65610296871639 0.0983830726794727 1.11611563356714 0.02345
0.02347 1.73949365591748 1.8015585787806 7.49159297025622 0.0969080745272698 1.1277341964328 0.02346
0.02348 1.66444111572181 1.83792405515341 7.67623685271579 0.0942724383629379 1.14687245199875 0.02347
0.02349 1.85540497560903 1.73924083957866 7.68503569202217 0.102936503551897 1.12824750661779 0.02348
0.0235 1.8421277691403 1.70944821962308 7.60717961775313 0.10137765033122 1.14374156382162 0.0234900000000001
0.02351 1.93031537624132 1.98563917990555 7.631670567273 0.108189838146026 1.13291671628578 0.0235
0.02352 1.68075721442079 1.72034567668891 7.77109480909107 0.098760076192584 1.13333223941958 0.02351
0.02353 1.80002647560491 1.64381558387148 7.62508072489912 0.0909783720293421 1.13666633769753 0.0235200000000001
0.02354 1.7550305590179 1.79589780910633 7.66063023535377 0.103720237306395 1.16027082852861 0.02353
0.02355 1.69485857955597 1.78883800461432 7.71256674918768 0.100302189908671 1.11202007338394 0.0235400000000001
0.02356 1.69221671455047 1.71408619823424 7.61168752268139 0.0929157498054957 1.14030777171566 0.02355
0.02357 1.51027081319951 1.66421594796854 7.62659835318985 0.0935799781700647 1.13330019222515 0.02356
0.02358 1.54200605425173 1.608632684945 7.72571622660972 0.0868973543444484 1.15584273072101 0.0235700000000001
0.02359 1.74284581940505 1.72963896018177 7.78491154039735 0.0983145592520803 1.15560591167252 0.02358
0.0236 1.60614899891113 1.69952498353746 7.75855559701999 0.0979643915117054 1.15130101829723 0.02359
0.02361 1.55383318270654 1.68038451930955 7.66602566437937 0.0952042192213176 1.13600046253804 0.0236000000000001
0.02362 1.61253855450541 1.88634012139649 7.69574339633704 0.0980092084564795 1.14367023666342 0.02361
0.02363 1.67347366400617 1.83494325002271 7.62749186298264 0.104296346355134 1.14552682561408 0.0236200000000001
0.02364 1.75597528362124 1.70481146976313 7.80714396941722 0.10213783243172 1.17999449689499 0.02363
0.02365 1.64078593990279 1.69982171509947 7.8062123548429 0.0965365985144669 1.15459264428536 0.02364
0.02366 1.68066348574775 1.76078487693034 7.86305067914904 0.099102056650585 1.14832460315004 0.0236500000000001
0.02367 1.66176894991302 1.75807175333927 7.64417340088568 0.0972728926418623 1.13787091863431 0.02366
0.02368 1.58481306120145 1.77315257872789 7.66855386956682 0.0907346079512215 1.15525156072677 0.02367
0.02369 1.50045599814421 1.60359703809557 7.77483186898515 0.0836348670067042 1.15849800395916 0.0236800000000001
0.0237 1.65532961034942 1.65372707131952 7.79012560795698 0.090899381778332 1.14685463007358 0.02369
0.02371 1.90715301806894 1.79710914142256 7.64109823806531 0.108051890323649 1.15045666126566 0.0237000000000001
0.02372 1.71881030412919 1.69606443704078 7.75706087019123 0.0972595269499613 1.13086868228376 0.02371
0.02373 1.78017887816071 1.73818669088006 7.71947514827158 0.0904839404831755 1.14730494141048 0.02372
0.02374 1.64624323494514 1.90982541509006 7.69330318777894 0.0983070923178034 1.1325776132327 0.0237300000000001
0.02375 1.66686982936338 2.01782584956492 7.62605349620407 0.102996921152657 1.14966867117815 0.02374
0.02376 1.71274155720352 1.86790098618341 7.67113307516806 0.095190854587036 1.14064363476014 0.02375
0.02377 1.80529840811463 1.91546588719528 7.68675072199905 0.101808920432161 1.15205614968345 0.02376
0.02378 1.83808074578179 2.08003617181308 7.5705452116645 0.110015990717276 1.1228061045061 0.02377
0.02379 1.94341010285381 1.99369272794088 7.63218794559745 0.106489582179149 1.14044405116124 0.0237800000000001
0.0238 1.72987882080219 1.95691921110821 7.61986951756067 0.106371368724234 1.12934545900976 0.02379
0.02381 1.8255324792497 1.79233840708673 7.6932403062728 0.1014182741799 1.14971752982158 0.0238
0.02382 1.98109084318908 1.99100494716264 7.71422191737117 0.10639560017389 1.14635411871341 0.0238100000000001
0.02383 1.80347681447744 1.9514159562835 7.65687909800431 0.110289680336195 1.12205722541336 0.02382
0.02384 1.91313510598168 1.7738490752414 7.64657680422618 0.103985443004127 1.14348181307118 0.0238300000000001
0.02385 1.87364443256269 2.00472141326748 7.66841218209964 0.108975112384128 1.11905886521139 0.02384
0.02386 1.80126138454538 1.96335142030576 7.56288502245218 0.105682137262339 1.14551450794031 0.02385
0.02387 1.91792209427978 1.948601573706 7.67634791973396 0.108429203975823 1.14419229092081 0.0238600000000001
0.02388 1.90848203429356 1.95713365781042 7.77585767740147 0.107215027715826 1.13198787720482 0.02387
0.02389 2.0027580670582 1.93923670921759 7.65544980364025 0.109719422048423 1.1095393502504 0.02388
0.0239 1.95082835696912 2.10776332422189 7.52033957360253 0.109833318111142 1.13998926188556 0.0238900000000001
0.02391 1.91302821122072 2.04091820843305 7.63938134589287 0.117573638395135 1.14252530125945 0.0239
0.02392 2.1435044336319 2.05286285885172 7.5354896161215 0.115625989979668 1.12668829828962 0.0239100000000001
0.02393 2.04702081865989 2.09497281273589 7.67533935972804 0.118269156096589 1.14825411057515 0.02392
0.02394 1.8772669117326 2.12434254330893 7.69747010006439 0.118229339493027 1.14610770548028 0.02393
0.02395 1.81665865167141 1.91480158123734 7.68095186535198 0.104718665285641 1.1434635623236 0.0239400000000001
0.02396 1.99887705556949 1.98232400350909 7.59549574844142 0.109782154700597 1.13242944220788 0.02395
0.02397 1.79114089518587 1.99765862538484 7.81855841093367 0.107001902174435 1.13844338855848 0.02396
0.02398 1.9669069752176 2.00733724761324 7.61013324463867 0.109840899914979 1.14264936384287 0.0239700000000001
0.02399 1.94626340540541 1.67623839790901 7.76344380119116 0.0991908190859613 1.13507762499634 0.02398
0.024 1.78898073027578 1.79711923077254 7.61099545190122 0.103951433650599 1.14016849258932 0.0239900000000001
0.02401 1.81281607876773 1.93338177947607 7.79799121205815 0.107144647600168 1.17575096154907 0.024
0.02402 1.90800990047722 1.87577626346396 7.67690601754682 0.104559753994223 1.14167613908821 0.02401
0.02403 1.91664166597487 1.84319346133921 7.65999159286789 0.107230087677442 1.14867684377439 0.0240200000000001
0.02404 1.77505550000514 1.98251770590612 7.70411172597875 0.105464974007217 1.15640150820744 0.02403
0.02405 1.94431644611733 1.87854969214866 7.74615441899891 0.113460667871225 1.15637513739764 0.02404
0.02406 1.83800647643626 1.968053771146 7.7822097388836 0.105922948590448 1.14200609608228 0.0240500000000001
0.02407 1.87602243285486 1.95764249797558 7.72491910110266 0.110905979613498 1.12603473399648 0.02406
0.02408 1.98928122925086 2.00958878243605 7.71336641477965 0.116036228152203 1.16506554403379 0.0240700000000001
0.02409 1.68310078460989 1.89498602035029 7.84082449530146 0.10279026994033 1.16905988515556 0.02408
0.0241 1.68968006040317 1.67242164550464 7.77487284940238 0.0946989093627688 1.14622445560201 0.02409
0.02411 1.72090840108899 1.84278593529626 7.79959093869291 0.0960397936401701 1.17513874689402 0.0241000000000001
0.02412 1.73440787431942 1.72773338251157 7.81806556654194 0.0962272064731262 1.15281431395826 0.02411
0.02413 1.76989718205937 1.91407770876333 7.82010822438049 0.102683209005467 1.16037204460188 0.02412
0.02414 1.67548760784593 1.64049414804107 7.94398263930742 0.0902606674050506 1.17450893509831 0.0241300000000001
0.02415 1.63566601334438 1.76172791849631 7.89089213546024 0.0975790364550953 1.1711873965693 0.02414
0.02416 1.78423795611472 1.70857449317393 7.88119216952984 0.091606872702193 1.16734464231832 0.0241500000000001
0.02417 1.79646711470573 1.87401583892789 7.83140994861725 0.111917079384813 1.16225656391844 0.02416
0.02418 1.68170952552345 1.84355522282281 7.91214761248357 0.10145443661755 1.15436544152822 0.02417
0.02419 1.87875119893799 1.95031977655409 7.85069316084995 0.101200854665396 1.16564570522311 0.0241800000000001
0.0242 1.8648348911183 1.76015557807809 7.82255264890852 0.102029344890715 1.17490776408879 0.02419
0.02421 1.88893454866179 1.87221323769665 7.84207765285235 0.106663953451402 1.14487725359685 0.0242
0.02422 1.72822947770116 1.85610712833767 7.86304385995258 0.101707896339069 1.16193949897409 0.02421
0.02423 1.69469438284927 1.87106207003086 7.86485199744072 0.100828004462449 1.18232337414261 0.02422
0.02424 1.64136464388404 1.78683057786227 7.91994822921544 0.0949037642995729 1.16958589536438 0.0242300000000001
0.02425 1.87913310642243 2.02670512496235 7.775900991538 0.10898147329831 1.14600199573629 0.02424
0.02426 1.82459088139164 1.88776134170086 7.82842793029694 0.104454412576209 1.17492102774386 0.02425
0.02427 1.78231143576624 2.03733923925594 7.88068787273315 0.113971604365802 1.1762475792071 0.0242600000000001
0.02428 2.00827024004589 2.01012159783774 7.75883942572827 0.115203639863756 1.15022072941553 0.02427
0.02429 1.80867199028249 1.83747630383 7.82481062557 0.101981118771922 1.1505170104274 0.0242800000000001
0.0243 1.74331572920047 2.03480370822023 7.84013266373531 0.108309755815663 1.16010222348176 0.02429
0.02431 1.97901809943891 2.09696093419526 7.80767739369681 0.114761403523879 1.17391027973769 0.0243
0.02432 1.88515065552593 2.15128190872611 7.8215423538653 0.111909890415429 1.14571319747108 0.0243100000000001
0.02433 1.87836668906338 2.03372461507943 7.70059090422699 0.107515066088332 1.15220289399848 0.02432
0.02434 1.8468579315024 2.0679897327709 7.83709933008259 0.110705191386629 1.17049744617752 0.02433
0.02435 2.08846899615991 2.08721912847159 7.76025089230449 0.113370528774988 1.16857326072221 0.0243400000000001
0.02436 1.91108981423795 2.04718160068649 7.7895539361988 0.113134689890267 1.15913435957473 0.02435
0.02437 2.11082115522827 2.18409906696123 7.71559450392088 0.119105948702847 1.16198659221385 0.0243600000000001
0.02438 2.05150758613917 2.04605580475015 7.63331311989342 0.115947915629172 1.13749077433926 0.02437
0.02439 2.04833397218784 1.93078347111579 7.81147206781227 0.116458158317684 1.1366332109968 0.02438
0.0244 1.92777789366455 2.08831655832167 7.67349566040225 0.10919128797833 1.15084674678722 0.0243900000000001
0.02441 1.80038591273581 2.02116768199183 7.7142865644449 0.111508379486976 1.1329374405545 0.0244
0.02442 1.99935283918124 2.1151242913371 7.63467002428873 0.112912522896662 1.15296472733901 0.02441
0.02443 1.99264607572891 2.1858214816949 7.79728872292748 0.115030639718806 1.1698742584051 0.0244200000000001
0.02444 2.06390951563792 2.2324598495052 7.81960764298479 0.121438929897169 1.15404625175828 0.02443
0.02445 2.10675564538759 2.27897484695678 7.71890830789597 0.121046245917079 1.16349424371858 0.0244400000000001
0.02446 2.04253690260555 2.10722014042392 7.76786957043236 0.105616709548849 1.15990335750418 0.02445
0.02447 2.13738188765778 2.00079953372071 7.79242444201201 0.122326676838993 1.13990967819411 0.02446
0.02448 1.99452724203255 2.27843138212689 7.66649182456211 0.123948544216837 1.15102289422888 0.0244700000000001
0.02449 1.99822761596621 2.14095804449603 7.70800552064267 0.114926203110008 1.15528364810026 0.02448
0.0245 2.05005763001243 1.91944421036761 7.86920871351796 0.11783066013582 1.17682355558948 0.02449
0.02451 1.9895316565343 1.9440155146512 7.92700931934391 0.107062890237116 1.18103489318181 0.0245
0.02452 1.82348085895307 2.07053877967567 7.7524048855152 0.106886317545992 1.15205372457756 0.02451
0.02453 1.96815945107253 1.88492081525128 7.85370669575974 0.109182384271199 1.15955007432385 0.0245200000000001
0.02454 1.97460907682116 1.95658243123414 7.84996791050761 0.108782002241317 1.16996519048868 0.02453
0.02455 1.7916141329384 2.01513744499753 7.87237990274825 0.103814276178847 1.186078094678 0.02454
0.02456 2.0059426234978 1.95087243979808 7.88657430154294 0.114961838686306 1.18491386524557 0.0245500000000001
0.02457 1.99970744768751 2.06263753394549 7.88234184593395 0.115587550961559 1.16118407304433 0.02456
0.02458 1.82335002765938 2.018204075902 7.81230110860408 0.103413225811852 1.1738814317914 0.02457
0.02459 1.63812863691441 2.05868335542362 7.9819781988684 0.109986341870007 1.17674467442081 0.02458
0.0246 1.70141516168085 1.83576434871756 7.92928256199934 0.100608842455061 1.16820929216792 0.02459
0.02461 1.87286670630992 1.87661314115616 7.99084180452821 0.10514833612736 1.17200996600467 0.0246000000000001
0.02462 1.87382175461744 1.77567737782791 7.97121811905026 0.10444571889153 1.17628385565635 0.02461
0.02463 1.79580171363624 2.00940856859035 7.99365535910725 0.103066416886977 1.18083778522529 0.02462
0.02464 1.83394158235578 1.95411313828167 8.01613097476956 0.108204528913973 1.18824396164283 0.0246300000000001
0.02465 1.77964391412359 1.87979394016323 8.0026359029471 0.105218599220487 1.20331402030336 0.02464
0.02466 1.88676257810018 1.896839711711 8.03732512106151 0.108910729358012 1.19429830040832 0.02465
0.02467 1.85023929914141 1.86095276665768 8.06083319609924 0.104413728736383 1.18785229519618 0.02466
0.02468 1.72771060985985 1.86256557768073 7.98940609929652 0.104202948411686 1.18466801021781 0.02467
0.02469 1.78767472811242 1.84373910457634 8.10620069175685 0.101812971693628 1.19130962198174 0.0246800000000001
0.0247 1.83183240096106 1.81544212178742 7.91746986980327 0.106872450160798 1.15983552654162 0.02469
0.02471 1.74064846289229 1.97872020705558 7.94490541751134 0.104296840500114 1.19341908572095 0.0247
0.02472 1.8225145357935 1.96868577997746 8.03829572440555 0.105838074857914 1.19877572660625 0.0247100000000001
0.02473 1.78045138160867 1.81867107953914 7.92001972088212 0.102144455940891 1.17148969620431 0.02472
0.02474 1.79605074289925 1.86912347034279 8.00099575255342 0.107571067515457 1.17749072601658 0.0247300000000001
0.02475 1.83977750508283 1.94710124583339 7.89933854012671 0.105953747716387 1.17876888140902 0.02474
0.02476 1.99639552470364 2.03988071472365 8.00455174277587 0.117748564285776 1.19700239648084 0.02475
0.02477 1.97584602068416 2.08204658171011 7.94871836198318 0.108066117236891 1.16633703521265 0.0247600000000001
0.02478 1.98573559679301 2.25718156835286 7.86987405598376 0.116080525804402 1.17032513010208 0.02477
0.02479 1.96794072120369 2.03267224227582 7.83673762140191 0.121685748019224 1.16667223078254 0.02478
0.0248 1.77795291118258 2.01836608305437 7.88252064872961 0.105681624129346 1.1987769013293 0.0247900000000001
0.02481 2.0174463574754 2.15386452405 7.98132939960611 0.115619487128359 1.17746553741831 0.0248
0.02482 1.98419313437462 1.9659965590011 7.81418077119503 0.117186845976966 1.16948381472667 0.0248100000000001
0.02483 1.9582290733422 2.07074003912138 7.95414623366732 0.119044199005479 1.18293217263304 0.02482
0.02484 2.09754038490202 2.03197072634091 7.91155268754517 0.117536656846857 1.17639308613271 0.02483
0.02485 2.04553356413751 2.09945519064325 7.83922999542946 0.119010094906371 1.18003382883759 0.0248400000000001
0.02486 2.0213277994302 2.17841107799644 7.95900133677631 0.121220292646071 1.20192192022205 0.02485
0.02487 2.14365346637988 2.16599860953979 7.86320209105661 0.122613689954554 1.15430306249003 0.02486
0.02488 1.99120982338108 2.19796326783686 7.89108355166327 0.115089313361648 1.18290274383162 0.0248700000000001
0.02489 2.12884714891458 2.18309268363801 7.95666097670982 0.121524475905751 1.19301583116189 0.02488
0.0249 1.93787644051192 1.97810986774299 8.04761833618032 0.108235043011904 1.17702693769628 0.0248900000000001
0.02491 1.94782698030837 2.28072257473713 7.78172844295828 0.116103450948802 1.15827731576665 0.0249
0.02492 2.25940407107912 2.21692842827599 7.83474142509678 0.126063909714813 1.18468975545321 0.02491
0.02493 1.98957401185199 2.38652490292908 7.87970491619325 0.129641690422709 1.17387727821051 0.0249200000000001
0.02494 2.06176791345765 2.26910301765417 7.95812034694221 0.118672241290447 1.18222945561922 0.02493
0.02495 2.14473587451164 2.2361458457535 7.89305358677362 0.119883971716727 1.19547347591125 0.02494
0.02496 2.12186900309989 2.22066096780504 7.88358130462293 0.124929026169798 1.1801550328165 0.02495
0.02497 2.03778211829306 2.22483406849984 7.84334798522885 0.11304446642218 1.18522139365116 0.02496
0.02498 2.08831770304823 2.42444543137519 7.86274451736928 0.130827486832392 1.15725784929496 0.0249700000000001
0.02499 1.962722497311 2.22848374883833 7.94692615119492 0.114671052270016 1.19903637180655 0.02498
0.025 2.11812729651805 2.03443302651863 7.99052880852724 0.113306726070874 1.19018182297689 0.02499
0.02501 2.0936870171456 2.19390523186283 8.02822106511697 0.117104692782197 1.18655902710258 0.0250000000000001
0.02502 1.92602999416431 2.19807282901453 7.91932641736749 0.11463855028145 1.17129873860278 0.02501
0.02503 2.07195697864031 2.172768710576 7.91532025172316 0.117755756135533 1.17413516046816 0.0250200000000001
0.02504 2.05669010894499 2.0846197621168 7.97071334578346 0.112642139922415 1.18658338588808 0.02503
0.02505 2.18960304834336 2.18751633758151 7.88464020584825 0.118647305944276 1.1773792126798 0.02504
0.02506 2.01716867873436 2.19000464502402 7.99652217424207 0.122648446392403 1.18737403608824 0.0250500000000001
0.02507 1.92752014694456 1.98527270549313 7.9847676881813 0.110413438202237 1.18274119290095 0.02506
0.02508 1.9831574131573 2.18155111958867 7.96674345800442 0.12572987449249 1.17509152490609 0.02507
0.02509 1.96225838864654 2.09365396849265 8.01078530867564 0.114920781939965 1.17656218014039 0.0250800000000001
0.0251 1.92767769580132 2.10266115590075 8.03169285958706 0.106876430165475 1.19401600577342 0.02509
0.02511 2.07148229609085 2.11811692462879 7.99975650926559 0.12059684628905 1.19261579158907 0.0251000000000001
0.02512 1.91583235733116 2.15794550282471 7.92068562164492 0.108687026645635 1.18954177642986 0.02511
0.02513 1.92865756558787 2.17048717774613 7.95681020881493 0.120920191725234 1.20913111348179 0.02512
0.02514 1.9870420199384 2.0655957094217 8.08508438474597 0.111416983883629 1.20169838963713 0.0251300000000001
0.02515 1.94518651274179 2.08240886040209 8.03570826741031 0.104511294490236 1.20342563277375 0.02514
0.02516 1.92637858376306 2.01498458811426 8.03357998111727 0.114029815607775 1.19691903979281 0.02515
0.02517 2.02743686148787 1.85921778517852 8.13088462688416 0.112343217184804 1.19323229352846 0.0251600000000001
0.02518 1.87648041531121 1.97679056091401 8.05255766655051 0.110762118776012 1.18755276827694 0.02517
0.02519 1.99109439332479 2.13382482270674 7.94872512782661 0.115711857877653 1.20515298653904 0.0251800000000001
0.0252 1.95252168641751 2.01806879909991 8.16517370350782 0.113330501451946 1.20480204980271 0.02519
0.02521 2.06809074278644 2.0582715025716 8.06183318776771 0.11656323634624 1.19554490770878 0.0252
0.02522 2.03474179834179 2.11926334091335 8.06435876755987 0.11960245656046 1.18697343458053 0.0252100000000001
0.02523 1.95453384241192 2.02553598870521 8.03373064289293 0.110954184212758 1.17698241065085 0.02522
0.02524 2.06264209182695 2.20331107283538 8.05019666053877 0.118776990434436 1.20205422843887 0.02523
0.02525 1.94969651835329 2.23757368032997 8.06905426371848 0.118179520810761 1.21362693730318 0.0252400000000001
0.02526 1.97670388182037 2.20410851777409 8.05221886860885 0.112442762712355 1.22462355408945 0.02525
0.02527 1.93788028714218 2.15265481140547 7.98150340348423 0.112994799825714 1.18665179518036 0.0252600000000001
0.02528 2.02368744256015 2.13957464283696 7.99749741717461 0.113706797270066 1.1973959597288 0.02527
0.02529 2.14542110077647 2.18914535218866 8.02842844174032 0.120583640537553 1.19677278575317 0.02528
0.0253 2.06550676301691 2.01724693581576 7.97749136716291 0.116692582918382 1.18562949916067 0.0252900000000001
0.02531 2.05682146389987 2.22848372037808 8.09692636372045 0.121897814617253 1.18395799262253 0.0253
0.02532 2.2284377082234 2.07003703627514 7.98124262239424 0.121778075637135 1.183152825308 0.02531
0.02533 2.17916540737315 2.24229699016909 7.94459658688769 0.122728029952143 1.20680581627697 0.0253200000000001
0.02534 2.22153727987751 2.26011744546365 8.00761362052128 0.126473279900365 1.18749142047076 0.02533
0.02535 2.31558819891436 2.31699193469863 7.94653046776893 0.129848675577789 1.1907605959973 0.0253400000000001
0.02536 2.19610089595932 2.27489876437226 8.00026670317082 0.129533832189114 1.19067542740977 0.02535
0.02537 2.10529095383439 2.39652802853738 7.92003428631909 0.129462376190191 1.17810940912894 0.02536
0.02538 2.10046768950112 2.17515934837436 7.92869602993685 0.120198718521393 1.16762920485231 0.0253700000000001
0.02539 2.0798378310246 2.15333779085134 8.00836044353367 0.116615628011861 1.19971041121235 0.02538
0.0254 2.17276876561441 2.13957854648829 8.13147527539138 0.118405709397852 1.21729846284061 0.02539
0.02541 2.29040890285369 2.24844885378812 7.9742795956233 0.130849256784096 1.18562376770118 0.0254
0.02542 2.14934930837041 2.2230488298414 8.07077311530554 0.123351811386023 1.19700355627281 0.02541
0.02543 2.02565149830978 2.28301709550737 7.98703847479134 0.123779344737737 1.19633131923117 0.0254200000000001
0.02544 2.22455408604831 2.31135039141808 8.05416681664815 0.126093587410002 1.23220907238323 0.02543
0.02545 2.2738351348356 2.35759822241665 7.99259342544716 0.135683958919694 1.18747794421058 0.02544
0.02546 1.96916677198969 2.2805240944741 8.0319901507027 0.118002783906352 1.19827774591729 0.0254500000000001
0.02547 1.94617686897664 2.23784889462641 8.09896087723875 0.113725710606989 1.19941248493149 0.02546
0.02548 2.25339228480017 2.16609898777593 8.01369976175681 0.130841305623232 1.19847863428161 0.0254700000000001
0.02549 2.12099496648997 2.34328709976256 7.96572895568775 0.123714346579397 1.19754021196821 0.02548
0.0255 2.0427507339837 2.23830069649001 8.09169328621697 0.115763402067653 1.20297311857985 0.02549
0.02551 1.95542081923905 2.21472133416352 8.16135309295375 0.121782623687404 1.21323953578312 0.0255000000000001
0.02552 2.01826811277655 2.30478558186778 8.1194675446776 0.124734032580283 1.19986126381161 0.02551
0.02553 2.02097586327467 2.17525112159052 7.96426661219425 0.122690897801099 1.17991311116631 0.02552
0.02554 2.04860850923116 2.17512212855359 8.09473539070409 0.1167597403067 1.20090528463605 0.0255300000000001
0.02555 2.2862209240622 2.12759751770414 8.01413648687176 0.123552491091949 1.1881333541586 0.02554
0.02556 2.04887287250456 2.05725009673358 8.11171140378125 0.113870026535882 1.21696190475202 0.0255500000000001
0.02557 1.95412358627629 2.10468604429397 8.04334998518231 0.119948835520547 1.17857152736582 0.02556
0.02558 2.07162596065821 2.19437104678979 8.00836264188999 0.11744178052546 1.20512629353613 0.02557
0.02559 2.00550677696296 2.08162043387494 8.14816290387215 0.117964329906879 1.21292478752168 0.0255800000000001
0.0256 2.01532893736789 2.18732853708305 8.08704705653119 0.11955011969311 1.2028129007221 0.02559
0.02561 2.06907986581267 2.05160356357605 8.1622730752142 0.114926720644509 1.21789460074379 0.0256
0.02562 2.20023783267645 2.22581928374026 8.16091635392 0.127256084027824 1.21418272799422 0.0256100000000001
0.02563 2.15475354865108 2.13615579837264 8.20350480903043 0.123011967434906 1.20491840791648 0.02562
0.02564 1.8787609340759 2.12003770126211 8.11014237108559 0.111357673206903 1.19607140756141 0.0256300000000001
0.02565 2.11675063050828 2.21429633226913 8.04238812417577 0.12059553135734 1.2077265039983 0.02564
0.02566 2.22961224878084 2.20419599372831 8.18286084187086 0.128602211656966 1.22987503850273 0.02565
0.02567 2.24680084047839 2.05724282761494 8.13382055852511 0.123671457849357 1.21166788961697 0.0256600000000001
0.02568 2.07072899334171 2.20710100632512 8.12645066171826 0.115806613105969 1.20521327312311 0.02567
0.02569 2.04893014350944 2.24243525077647 8.09126778215008 0.124236962574651 1.20846512312998 0.02568
0.0257 2.04278809307464 2.15315447967755 8.18284254179909 0.118683089703433 1.21794820928885 0.02569
0.02571 1.94577991342732 2.19668201025322 8.11437242188379 0.115513673453678 1.21126599800887 0.0257
0.02572 1.96089566910873 2.13536417732745 8.17216837408692 0.118516574475755 1.2442203212896 0.0257100000000001
0.02573 2.231217300491 2.41137079029279 8.19074402600159 0.131361261807456 1.21735940460287 0.02572
0.02574 2.21379464003816 2.26224047662157 8.1061041036354 0.128940407013093 1.21131077084674 0.02573
0.02575 2.30062254803459 2.30734764961602 8.04784740285544 0.131678191173333 1.21174292254615 0.0257400000000001
0.02576 2.28394539349143 2.28151622806361 8.03812776680439 0.124191544719668 1.19229837937691 0.02575
0.02577 2.31615584396789 2.43481384728042 8.02476158030789 0.12790713428957 1.20952942741648 0.0257600000000001
0.02578 2.29304842382457 2.3723004215891 7.98836467202926 0.127530475194845 1.22652766834354 0.02577
0.02579 2.33645688176099 2.43506644796835 8.12080394546977 0.132160299690977 1.21853233129834 0.02578
0.0258 2.20196981305035 2.33537743165851 8.06239817476009 0.121746233891305 1.20165683409721 0.0257900000000001
0.02581 2.21590861173838 2.27827751694227 8.09402232269735 0.129203256315586 1.2129309173318 0.0258
0.02582 2.32326363512291 2.26920812408747 8.15476038750508 0.129583949278836 1.21174406994723 0.02581
0.02583 2.09703787794474 2.26422709584077 8.02389541241325 0.121747348430182 1.2058911573176 0.0258200000000001
0.02584 2.03939894157199 2.28358566363579 8.11333737491751 0.123381916885845 1.23017089622153 0.02583
0.02585 2.24334473367595 2.47826490616036 8.21018310482305 0.133615285028253 1.20123417093188 0.0258400000000001
0.02586 2.18444332688022 2.37481942103107 8.16209274670329 0.130357971518124 1.21391229501369 0.02585
0.02587 2.2500557959818 2.21270084997958 8.1568741401512 0.125857160747474 1.23215738741304 0.02586
0.02588 2.05365599488711 2.24829237885946 8.12504463488702 0.118723417337895 1.21977794537382 0.0258700000000001
0.02589 2.28698592733159 2.29556400141676 8.1287449829168 0.128143992987169 1.21337257446964 0.02588
0.0259 2.15625751719834 2.33293584635613 8.1017932301471 0.12681311100191 1.22614031331127 0.02589
0.02591 2.41583496106908 2.21547300382916 8.17574374165763 0.130266197197095 1.2386629905701 0.0259000000000001
0.02592 2.37631242646364 2.17126111874424 8.16108194856814 0.134051479730125 1.18999652006554 0.02591
0.02593 2.24649779490998 2.26906679795414 8.09245733245989 0.123137250233475 1.21051476747304 0.0259200000000001
0.02594 2.26197700195643 2.42629562362443 8.19022008792675 0.131515837137975 1.22301359146465 0.02593
0.02595 2.21444262831848 2.40453171668511 8.01395194998026 0.133473949447494 1.21252873841843 0.02594
0.02596 2.12994222381705 2.2899898354446 8.21871835771207 0.122981207174031 1.2414554494251 0.0259500000000001
0.02597 2.40514116827032 2.15891209687543 8.16452569387155 0.133239600972402 1.20362797999788 0.02596
0.02598 2.02106308012179 2.36430342751404 8.24682227283872 0.120503588110089 1.24745640677336 0.02597
0.02599 1.98694480792733 2.28376806155651 8.12477068752059 0.117243713534842 1.20919733154209 0.0259800000000001
0.026 2.24738353550222 2.22101062941608 8.18936248209147 0.124845405877594 1.22247195632367 0.02599
0.02601 2.27202156161388 2.24270396118332 8.28048995551039 0.118725338226381 1.23560562043222 0.0260000000000001
0.02602 2.12416980551264 2.27936019288056 8.29623402332783 0.130563650022903 1.21641345364124 0.02601
0.02603 2.0101759380676 2.12226370438948 8.28201499853997 0.112141392805445 1.23517039357737 0.02602
0.02604 2.06551932304338 2.26008541922972 8.21997583344676 0.121593595648454 1.2193791028328 0.0260300000000001
0.02605 2.00045499479857 2.35832673192822 8.1790981211526 0.12667836133271 1.22096049838951 0.02604
0.02606 2.12597944426828 2.18642909194075 8.28572253046041 0.122330494293635 1.23966833191874 0.02605
0.02607 2.16340247347865 2.1998454993623 8.37521323835277 0.118752074175715 1.22741237915588 0.0260600000000001
0.02608 2.01730011927746 2.32340509746265 8.20880495286575 0.126996352236124 1.21611327297006 0.02607
0.02609 1.94403993501978 2.28812500003815 8.18059775893521 0.121099255404859 1.23734580526321 0.0260800000000001
0.0261 2.17545045629668 1.95261409348613 8.30384112021651 0.116794693680513 1.24511161265519 0.02609
0.02611 2.14116954751724 2.30584825259391 8.3695606914673 0.128039327026304 1.23921752088599 0.0261
0.02612 2.12150556293621 2.22226012264753 8.273471924999 0.113595190385462 1.21778024863849 0.0261100000000001
0.02613 2.00247180873587 2.22393628949657 8.25578126267742 0.116495519357888 1.23512519471159 0.02612
0.02614 2.06490641830901 2.42745769061156 8.22477944272315 0.128019316996151 1.22103359499483 0.02613
0.02615 2.1268008602633 2.14917802827695 8.24304624997434 0.115502734262552 1.23045674186328 0.02614
0.02616 2.09130815281954 2.35958137953231 8.23396748772347 0.124534985734807 1.2406212371946 0.02615
0.02617 2.14644346376813 2.49112629515418 8.09419083042983 0.129485028122665 1.2199717744057 0.0261600000000001
0.02618 2.40645873062447 2.34793773793459 8.18895731354177 0.135817606856304 1.21340261892049 0.02617
0.02619 2.35596068311687 2.37698803542229 8.13745188100521 0.134625040903326 1.21987132171217 0.02618
0.0262 2.3473821154706 2.28862961476839 8.22996078829069 0.124578282354263 1.22197872427532 0.0261900000000001
0.02621 2.30380737398234 2.32131471686756 8.16091729617957 0.128130999587176 1.22256047276517 0.0262
0.02622 2.4626323725827 2.41817876017372 8.21874918473726 0.136911806780165 1.23365442557982 0.0262100000000001
0.02623 2.23534674157643 2.47964398262006 8.13242297325892 0.133752728130973 1.21500927610146 0.02622
0.02624 2.29889152079243 2.55516703596881 8.08433052362115 0.140670675667934 1.22408539581493 0.02623
0.02625 2.5346742416738 2.64594033437413 8.12389535389676 0.147944869024679 1.22936925884982 0.0262400000000001
0.02626 2.40505178802284 2.586543419746 8.08174968366116 0.143436867521446 1.22083420120642 0.02625
0.02627 2.17744319955923 2.45084486012963 8.23970186251501 0.13000391959068 1.21339289085965 0.02626
0.02628 2.31349500935067 2.51214449658657 8.09709907981141 0.140282478873167 1.2084210815402 0.0262700000000001
0.02629 2.60853760507933 2.6277933481306 8.04929676381636 0.143474000178452 1.22508547492878 0.02628
0.0263 2.57709328070317 2.48094199529434 8.15286090163775 0.144327185189377 1.23349158980318 0.0262900000000001
0.02631 2.39347154276432 2.4436263143551 8.04736840831197 0.134082652607384 1.21191359159851 0.0263
0.02632 2.33373096233377 2.47384790410097 8.2230681813216 0.128975123739154 1.23845559776522 0.02631
0.02633 2.48491437547266 2.42639961702683 8.26073691049984 0.142603206156197 1.21667866204618 0.0263200000000001
0.02634 2.34097780579022 2.45729364152921 8.13316938448293 0.133455517048088 1.23255229884654 0.02633
0.02635 2.30949542252996 2.27850793163991 8.26293909308599 0.133166390392543 1.23278445488312 0.02634
0.02636 2.31508863045498 2.38900665989095 8.28527289006785 0.136792393319227 1.23466693061317 0.0263500000000001
0.02637 2.31649809841105 2.37971705552281 8.24107366867724 0.128456318920737 1.21456004947575 0.02636
0.02638 2.08769797710788 2.44234998643164 8.1332410835632 0.127566282305239 1.221802988143 0.0263700000000001
0.02639 2.18739794221254 2.50373761980209 8.20300512126108 0.133909362539984 1.26580931502321 0.02638
0.0264 2.2872339522761 2.24476058753442 8.41707922808714 0.134030513338901 1.22181305695792 0.02639
0.02641 2.07224444438553 2.40080525739678 8.34265263967743 0.125734696162342 1.22408434346844 0.0264000000000001
0.02642 2.13700724017632 2.56249930799161 8.3854223896 0.130397263018524 1.2527844537221 0.02641
0.02643 2.13098860425349 2.40464597947268 8.45450060702237 0.128752843684466 1.23388719270895 0.02642
0.02644 2.19492850897115 2.1918310022741 8.31377657171747 0.119034798354977 1.23180322167128 0.0264300000000001
0.02645 2.01777830640975 2.3375686182126 8.35574329103535 0.12125697394534 1.25956655507326 0.02644
0.02646 2.12895715922153 2.35888100347171 8.41464038125492 0.135995189977886 1.24094745518583 0.0264500000000001
0.02647 2.24493035539918 2.32085010799922 8.41729620281255 0.131675631075585 1.23845109882309 0.02646
0.02648 2.08241028838371 2.37629796982633 8.36835455372305 0.121073920679493 1.21731782602288 0.02647
0.02649 2.31508915408184 2.43746943316498 8.29558258063222 0.130267599528085 1.23891088229059 0.0264800000000001
0.0265 2.45747649111738 2.29596360159189 8.30498041863474 0.136057855288706 1.25932208577092 0.02649
0.02651 2.24780330490078 2.22610561398446 8.43327987135233 0.122968922749516 1.25107062993193 0.0265000000000001
0.02652 2.24495514016009 2.44769832786974 8.32737629847118 0.13310708712358 1.22742032100188 0.02651
0.02653 2.24013951874775 2.30789050179518 8.32030452643309 0.122580589997874 1.26010214454058 0.02652
0.02654 2.21906555834166 2.25218748381776 8.34013407145714 0.129056394260817 1.26159092209749 0.0265300000000001
0.02655 2.23578601179986 2.12083916262483 8.3281653377452 0.120957619296121 1.23354346282247 0.02654
0.02656 2.08663131277606 2.45209950987132 8.31308857976144 0.128197732599382 1.24167936115734 0.02655
0.02657 2.22017311977064 2.38147917242707 8.34688014116183 0.1255164153748 1.25590170296121 0.0265600000000001
0.02658 2.35479518771731 2.27236834593357 8.34892622107829 0.132110492773266 1.24191559039938 0.02657
0.02659 2.35730455530209 2.51512445149672 8.42818336404865 0.127185360018178 1.2688635414961 0.02658
0.0266 2.43612634108278 2.42872168728182 8.39731903965677 0.142061592006243 1.22586230695309 0.02659
0.02661 2.32080545360764 2.35888268319368 8.31271166169522 0.13606397887194 1.21762706842937 0.0266
0.02662 2.24030638596428 2.59529810799137 8.18947449745945 0.134245066421659 1.25607159708473 0.0266100000000001
0.02663 2.4311787543446 2.69398462283818 8.28368651715147 0.144995295148215 1.22543451966681 0.02662
0.02664 2.28723908226907 2.59733899367519 8.2711015277772 0.14242473222456 1.22697690984501 0.02663
0.02665 2.50742231952356 2.53836752845363 8.21731916003101 0.134596866068933 1.23005677803478 0.0266400000000001
0.02666 2.39401587052127 2.69360718738163 8.26408856450506 0.144362005137607 1.24397733435207 0.02665
0.02667 2.48964691890942 2.59920830454128 8.26499183708508 0.143438292930478 1.24241751466713 0.0266600000000001
0.02668 2.32256282119978 2.54248199486984 8.28690688705611 0.134578241816677 1.23020130899004 0.02667
0.02669 2.25870249375721 2.43647987654494 8.2643451309739 0.131012486012403 1.22970013706671 0.02668
0.0267 2.34423727119273 2.50590305297932 8.21030663123058 0.142248940829258 1.22680341822996 0.0266900000000001
0.02671 2.36283754642379 2.40946136351758 8.2968729838853 0.129351330225096 1.25165950127305 0.0267
0.02672 2.49090762783502 2.59694505630139 8.25429144664874 0.142697215425745 1.24752014926342 0.02671
0.02673 2.50431707081873 2.69196210585737 8.33009006260894 0.148250750159606 1.24351468606704 0.0267200000000001
0.02674 2.50854052575687 2.58393504673658 8.21123479969418 0.14454596443781 1.24366198234782 0.02673
0.02675 2.35098338136237 2.504118743594 8.3071618635078 0.136572765742224 1.23910960791455 0.0267400000000001
0.02676 2.31972110962288 2.33910673683038 8.31735124812422 0.130370663260481 1.24015551174598 0.02675
0.02677 2.45467385901749 2.57935892171417 8.32586495506738 0.140557416726231 1.23946303570998 0.02676
0.02678 2.31443372860076 2.46040949527607 8.29144603489991 0.139277398858597 1.23024434053535 0.0267700000000001
0.02679 2.38241445602916 2.61469167785891 8.32405579608102 0.141906279500295 1.2491835113197 0.02678
0.0268 2.20465933238255 2.42954288275011 8.46392218580409 0.121820205497122 1.2785469719917 0.0267900000000001
0.02681 2.40588857880429 2.49722801647422 8.32465692693814 0.138883441310076 1.24433202626929 0.0268000000000001
0.02682 2.30905925507814 2.57038305044234 8.34914773085511 0.139767060334507 1.24725299474206 0.02681
0.02683 2.31792101237044 2.44397239763027 8.2786953309443 0.127952446572924 1.26950448842633 0.0268200000000001
0.02684 2.37406941966019 2.60604332514115 8.44551973116148 0.141322924709733 1.25744727955434 0.02683
0.02685 2.27384876726522 2.45889716597957 8.34354851351057 0.129189876123168 1.2426547561751 0.02684
0.02686 2.24274230667731 2.30385493373588 8.382811754612 0.127855635955536 1.23500711761936 0.0268500000000001
0.02687 2.36785978814037 2.5501320992445 8.39020582253661 0.133307085060189 1.26576088823902 0.02686
0.02688 2.36541319672815 2.29461169052045 8.42560066393642 0.131495906913244 1.27781116207136 0.02687
0.02689 2.18746411364498 2.44943068958769 8.36392932515444 0.131704886257307 1.24524725935258 0.02688
0.0269 2.30172130003958 2.49295179736712 8.48675365362535 0.138544457120915 1.25916608266896 0.02689
0.02691 2.15320603346982 2.52263934406555 8.48049733898538 0.125919116632471 1.25788467462533 0.0269000000000001
0.02692 2.35677493212475 2.47468621270934 8.38455641310858 0.137912639477547 1.26087990568423 0.02691
0.02693 2.38735327619833 2.53261142535438 8.35120693997944 0.145074666978681 1.25031306812871 0.02692
0.02694 2.40043677515305 2.45601010209583 8.50414333872328 0.132223362169138 1.28013984682815 0.0269300000000001
0.02695 2.49447991447281 2.36141001593053 8.412169294849 0.135936021151615 1.24673054890622 0.02694
0.02696 2.41122144906941 2.6124403989167 8.25916729880643 0.143219182590982 1.26181036684577 0.0269500000000001
0.02697 2.45812491435173 2.30876798392857 8.40508917709742 0.12799363388568 1.29430202305426 0.02696
0.02698 2.3553468711618 2.39831648766563 8.48511407372549 0.129039207228237 1.25369811049312 0.02697
0.02699 2.51557243098321 2.63171471449056 8.31161859771117 0.149084659438541 1.25168114485389 0.0269800000000001
0.027 2.32159838218592 2.57151989916391 8.4397273452215 0.135898939089349 1.27800856995389 0.02699
0.02701 2.25046290433655 2.45707604055583 8.41730636205106 0.13107336302079 1.26104654087646 0.027
0.02702 2.28808527651603 2.35227439417691 8.35192703671041 0.124885402255658 1.27168949047268 0.0270100000000001
0.02703 2.41039924185834 2.37398819271947 8.41029970871301 0.13359128317109 1.25878622282234 0.02702
0.02704 2.37565910152571 2.59627168354425 8.31534291790301 0.143245790690188 1.23760337186063 0.0270300000000001
0.02705 2.45196846234647 2.5260112829938 8.33152940386789 0.138286845564148 1.26354249215371 0.02704
0.02706 2.34399963026909 2.51931802685446 8.37318458669948 0.129255757670696 1.26191625082208 0.02705
0.02707 2.49441377320124 2.67114412231951 8.41462169413765 0.144568738187611 1.27325055032848 0.0270600000000001
0.02708 2.55902181949089 2.39219073992214 8.37216829489076 0.139466176093676 1.23964889467524 0.02707
0.02709 2.519555456577 2.66759911312541 8.251906978553 0.14298852656441 1.25981253098819 0.02708
0.0271 2.5284691251892 2.57820728338642 8.42162563738618 0.141836894680325 1.27674140485815 0.0270900000000001
0.02711 2.36109418878217 2.50757287776291 8.57381590270983 0.137976063208333 1.27090630421886 0.0271
0.02712 2.30980660659646 2.60084674089934 8.41342053692672 0.134828412808703 1.26695220258049 0.0271100000000001
0.02713 2.41247567835364 2.4459427466924 8.36312827121128 0.141416267733581 1.26363995862193 0.02712
0.02714 2.45455778249895 2.61381580300197 8.3502375088026 0.138168647272737 1.26932284109395 0.02713
0.02715 2.48682926286032 2.47056428530368 8.55265551340424 0.138763170251811 1.28303059610876 0.0271400000000001
0.02716 2.40993270471578 2.64187089294928 8.38820066717343 0.14903090730825 1.22288221168334 0.02715
0.02717 2.51796599103705 2.529537443681 8.34836177793047 0.13820756408003 1.2686038173655 0.02716
0.02718 2.46726237012429 2.59625895889569 8.55998560035084 0.134765547938301 1.2748048210285 0.0271700000000001
0.02719 2.61094481927375 2.6247704208326 8.37017494708769 0.154301841748356 1.2467139676734 0.02718
0.0272 2.36825812854539 2.60659637929755 8.41451030301424 0.140018725095674 1.25753922247316 0.0271900000000001
0.02721 2.31543382402014 2.68800335129255 8.48116342063173 0.142158802738438 1.27446334949359 0.0272
0.02722 2.59627118766612 2.67027874265579 8.42209035195057 0.143199665315492 1.27163737232125 0.02721
0.02723 2.5288297284358 2.5186776897954 8.31842325143482 0.153431261504609 1.23658891033659 0.0272200000000001
0.02724 2.46828854943493 2.58854705768361 8.33438039369281 0.138631442424295 1.25812217460557 0.02723
0.02725 2.39627270944378 2.61979673357497 8.48081384031542 0.141619436952738 1.27321022818819 0.02724
0.02726 2.37849549512088 2.40422299794139 8.50926535156003 0.134118416451231 1.25661428593716 0.02725
0.02727 2.4359302871901 2.57166008473946 8.48261800512836 0.138031509099623 1.28059433140987 0.02726
0.02728 2.38568678681399 2.46909767002603 8.54517355780585 0.144723667369538 1.26724500429468 0.0272700000000001
0.02729 2.3726923736158 2.39669484507773 8.55641194371605 0.13432388242546 1.27735466078444 0.02728
0.0273 2.27493676097788 2.50785960720895 8.60811286324803 0.13516448871983 1.26864341945745 0.02729
0.02731 2.24390629233048 2.29711883904012 8.58366014845745 0.130288522244055 1.28920283545982 0.0273000000000001
0.02732 2.32940806150678 2.55082036320045 8.53199897471223 0.138675405714135 1.2812638341416 0.02731
0.02733 2.25978920698663 2.44428635583546 8.6034109309493 0.132477787962607 1.28193428898625 0.02732
0.02734 2.42707871398682 2.38691475643565 8.52888037113292 0.143346423163574 1.26901051469514 0.02733
0.02735 2.2779837507465 2.56290904419575 8.52715930275733 0.132689866472972 1.27254809162194 0.02734
0.02736 2.35642319906351 2.76495177260702 8.49194832152148 0.144567835867908 1.28046358090028 0.0273500000000001
0.02737 2.35570732372004 2.45783135922566 8.61497485707224 0.140020497738455 1.29271722148086 0.02736
0.02738 2.46270537277512 2.56715444498888 8.60555681612447 0.137029676898287 1.2920838367175 0.02737
0.02739 2.51925959307717 2.56721053282732 8.60865663512067 0.140007704586286 1.28193283908462 0.0273800000000001
0.0274 2.23462433851065 2.56759178583134 8.50368089861488 0.132255584298612 1.27296684801558 0.02739
0.02741 2.35504051799797 2.7458465762682 8.58795910003089 0.139169382597072 1.29410663216713 0.0274000000000001
0.02742 2.31108978784482 2.6633464340282 8.46364053607033 0.144471699519769 1.26968267471431 0.02741
0.02743 2.31631282624433 2.53286028415924 8.42316459375173 0.134433384801957 1.28036681352443 0.02742
0.02744 2.5442899889287 2.52149582929797 8.50428786235064 0.146158921547058 1.25858304939025 0.0274300000000001
0.02745 2.71597031473048 2.76438497757845 8.31036347037953 0.151582294745071 1.26827161198102 0.02744
0.02746 2.46364687782262 2.81063439048737 8.3780617490088 0.148646084171866 1.26788605647827 0.02745
0.02747 2.65863178135212 2.82159423075758 8.28664029704323 0.157878110061149 1.23843074794261 0.0274600000000001
0.02748 2.77906915271073 2.80113613741594 8.24434370515936 0.15577456713661 1.25316994089727 0.02747
0.02749 2.81489225350751 2.80001298317254 8.33683373090104 0.158166668865535 1.24889949859848 0.0274800000000001
0.0275 2.72581151785411 2.95333348160486 8.39366792001026 0.155978975501218 1.26675313382518 0.02749
0.02751 2.6237132308224 2.70696668688621 8.34182479875268 0.139875519652239 1.27444861180504 0.0275
0.02752 2.65173490748554 2.78686547362776 8.50440951658951 0.155428626470372 1.26857171786742 0.0275100000000001
0.02753 2.6234334797138 2.73828045433667 8.44447496592403 0.154946621118369 1.26671343051447 0.02752
0.02754 2.48975837258061 2.95290603171188 8.54493324895583 0.149865277495456 1.26990446963991 0.02753
0.02755 2.56610518548324 2.79988648013259 8.43889250750318 0.14728894782633 1.27430378432162 0.0275400000000001
0.02756 2.68452234101407 2.76460144015624 8.53385863333396 0.153076768528689 1.27722107017127 0.02755
0.02757 2.51723700748197 2.80798310879484 8.49022242815418 0.147995073829417 1.28207187534393 0.0275600000000001
0.02758 2.64108109994583 2.71695002645874 8.47373307184935 0.148724467183383 1.27717299303675 0.02757
0.02759 2.50939264302441 2.42626472585933 8.47627895871808 0.138404404034725 1.27901085788846 0.02758
0.0276 2.41706522514933 2.4826107321024 8.6625139493791 0.136564526440935 1.29531468984174 0.0275900000000001
0.02761 2.521599374783 2.6369641087845 8.6289839065686 0.13830626073924 1.28463354271176 0.0276
0.02762 2.354484614601 2.62252920451939 8.59232402274769 0.140900751270827 1.30616715697611 0.02761
0.02763 2.45864330717558 2.46792172108505 8.59495149358771 0.140543744871134 1.28515520389713 0.0276200000000001
0.02764 2.21886167753796 2.77128372851871 8.49234019680163 0.141168743813786 1.30556599700923 0.02763
0.02765 2.30827096043034 2.57237394711048 8.66700919594521 0.140299124646007 1.29917981767907 0.0276400000000001
0.02766 2.40235349544577 2.61963252109724 8.52442534433226 0.14443577810719 1.26755634890615 0.02765
0.02767 2.33230899631766 2.41175044067449 8.62233662182344 0.123775690204003 1.30481821328465 0.02766
0.02768 2.30806463493835 2.44465386782059 8.67949748715763 0.138090331668918 1.26627703673582 0.0276700000000001
0.02769 2.55386451845102 2.62215517896412 8.56906923676397 0.146893232659607 1.28657763381115 0.02768
0.0277 2.35979163498383 2.70476844983011 8.71854605648358 0.142674392338152 1.30652461122908 0.0276900000000001
0.02771 2.30490215459181 2.58257507690329 8.72578166237265 0.135098862796705 1.28936461180386 0.0277
0.02772 2.42212766787205 2.7079559975682 8.56893175713084 0.138306284064403 1.31689661970797 0.02771
0.02773 2.41537221047305 2.48179748816953 8.69219443746816 0.139132525939165 1.31411402598635 0.0277200000000001
0.02774 2.29868071545478 2.45486509521613 8.55480829399801 0.136841477629881 1.25324989874521 0.02773
0.02775 2.34912282850318 2.50420237442609 8.69273116544466 0.135269784697532 1.30200766141663 0.02774
0.02776 2.46029993407781 2.63825616073394 8.60190924993571 0.138494703170263 1.30590782088819 0.0277500000000001
0.02777 2.55025353086852 2.54624857999148 8.62880874761633 0.147494726855167 1.29799787410255 0.02776
0.02778 2.47464070523433 2.58925452830117 8.65163116829287 0.141128495617971 1.28500440539012 0.0277700000000001
0.02779 2.38641052879874 2.53879350857977 8.5532343244673 0.131297552894538 1.29214463979045 0.02778
0.0278 2.50705640611608 2.66603754014685 8.61865689879507 0.149310002598041 1.2718013818237 0.02779
0.02781 2.70738983781355 2.71730436614824 8.56472960530783 0.146499258085736 1.30573387715353 0.0278000000000001
0.02782 2.38567180992961 2.61525384524375 8.64752725410213 0.134796727585112 1.28348718877424 0.02781
0.02783 2.49679635165728 2.55531205845843 8.5534870976659 0.143229593064366 1.28744391638156 0.02782
0.02784 2.55878279322063 2.95235340301093 8.56333645937598 0.156964762950298 1.30103717586523 0.0278300000000001
0.02785 2.62791439542065 2.79452307154739 8.5491224584821 0.151518681156807 1.28543020177018 0.02784
0.02786 2.63226408639857 2.66246725390377 8.55024958607402 0.14565318177996 1.28504263375112 0.0278500000000001
0.02787 2.64425405457178 2.81226261254699 8.60484972978258 0.143311383852442 1.28446243669646 0.02786
0.02788 2.64178451837384 2.88329008144499 8.46719182748762 0.150531764296725 1.28232408965386 0.02787
0.02789 2.75133030086495 2.73378890918759 8.60061746482895 0.152120965246055 1.28511922856112 0.0278800000000001
0.0279 2.52688006619468 2.80220339382939 8.45376755889091 0.151011577980067 1.25803552656613 0.02789
0.02791 2.74862563763489 2.80354819154628 8.47902452074367 0.152275655741519 1.29280045251018 0.0279
0.02792 2.78571306726988 3.06750494319888 8.50918679364221 0.17153194769866 1.26345524115971 0.0279100000000001
0.02793 2.81843458921425 2.88214979645303 8.31778764095839 0.161117313624462 1.26518356173074 0.02792
0.02794 2.76778597968699 2.95603176918578 8.46189291541539 0.150528594485506 1.28546010116915 0.0279300000000001
0.02795 2.69328408099497 2.95479785900962 8.45915263892562 0.164230811271871 1.27660391442977 0.02794
0.02796 2.70846508738072 2.87536477756621 8.66512585532098 0.157380492581767 1.29458496142925 0.02795
0.02797 2.65660512910331 2.677709853111 8.58971743111705 0.143252056233448 1.28594544187638 0.0279600000000001
0.02798 2.50777753594465 2.67621827901649 8.58631101028848 0.144273581093732 1.28464784615192 0.02797
0.02799 2.58121473332915 2.82892880271157 8.56261072081183 0.151611842091013 1.29717019474769 0.02798
0.028 2.59457748929936 2.79911993923669 8.5477185610447 0.150686899637584 1.29353163627489 0.0279900000000001
0.02801 2.41245319143441 2.77662778887626 8.68852706976531 0.153067392124187 1.28746490208775 0.028
0.02802 2.62570922400487 2.78321184056836 8.5490429099546 0.154379739921277 1.28629869754136 0.0280100000000001
0.02803 2.66582376278159 2.79432992180666 8.52914669583288 0.158717989804768 1.29208456499233 0.02802
0.02804 2.81945819608649 2.71911405939659 8.68693619681457 0.14883626133728 1.30760461606407 0.02803
0.02805 2.65174855410372 2.85723702572836 8.58830891605872 0.153878641993753 1.30766167261592 0.0280400000000001
0.02806 2.60654056900573 2.74300734175258 8.63252326440625 0.152235905464927 1.31895638357739 0.02805
0.02807 2.5388493912729 2.546040561466 8.82628180600014 0.143070032277322 1.30301876353963 0.0280600000000001
0.02808 2.42618364149542 2.67663774053471 8.72388366382408 0.142384725266677 1.28805624459006 0.02807
0.02809 2.35119164403865 2.6297894875805 8.71951419029291 0.141510707726884 1.31434471080139 0.02808
0.0281 2.73268699551158 2.64867245612059 8.68657908100108 0.143852969006207 1.31419845198215 0.0280900000000001
0.02811 2.56269500388389 2.59667015187871 8.73516941318357 0.147439524990301 1.30557950588735 0.0281
0.02812 2.52108798607515 2.52702834344414 8.82445551441317 0.142737303652509 1.30433938604552 0.02811
0.02813 2.75880945730275 2.54212840864957 8.64487978421092 0.149758118788453 1.30553222037596 0.0281200000000001
0.02814 2.49979904474237 2.71857754483119 8.74406452582745 0.146871652811752 1.30915149094567 0.02813
0.02815 2.42054076943716 2.68582118479898 8.72558140671742 0.145157757928038 1.31338780819271 0.0281400000000001
0.02816 2.472243983373 2.68385919281928 8.70285232002359 0.144629096947766 1.32595771588784 0.02815
0.02817 2.59865310735359 2.65667887732244 8.79286631814266 0.145779568984864 1.31665384461551 0.02816
0.02818 2.70302875276835 2.68851116485564 8.72979086224577 0.14941230326555 1.28597198500785 0.0281700000000001
0.02819 2.60875923057813 2.78525792258358 8.64892365981361 0.158876851394597 1.29652722240888 0.02818
0.0282 2.60644939869429 2.76975311101184 8.81076924013124 0.15321024472944 1.33426314587036 0.02819
0.02821 2.52212540713189 2.75627182259176 8.69148295976668 0.142080636522259 1.30284203160301 0.0282000000000001
0.02822 2.65415410796643 2.56315769477707 8.68697089048917 0.146340039694717 1.32346130620626 0.02821
0.02823 2.59007375514472 2.64496081397432 8.76500878739971 0.144178244726191 1.31597633368859 0.0282200000000001
0.02824 2.63580618355224 2.79486105523968 8.61964130279246 0.151606475605667 1.31145702932945 0.02823
0.02825 2.63981035227739 2.53579378492539 8.76496881820803 0.147753493824193 1.33320699798484 0.02824
0.02826 2.51310170333148 2.53675043397182 8.79754565996728 0.140422112590263 1.30392257823692 0.0282500000000001
0.02827 2.27973221564553 2.68777990688469 8.79609119504118 0.145905928203469 1.29499611596973 0.02826
0.02828 2.45286873245377 2.86524850831675 8.69530559909303 0.147752792926779 1.31087133067303 0.02827
0.02829 2.50472838111198 2.72654552275853 8.75267492509626 0.138012279672557 1.33356102980769 0.0282800000000001
0.0283 2.5531035316819 2.80384757570424 8.70770556880218 0.15255796177663 1.29474177230165 0.02829
0.02831 2.7306730793255 2.83417108961675 8.54437925854075 0.155799784683764 1.29184466433773 0.0283000000000001
0.02832 2.67985038093529 2.87420753227367 8.5856860870389 0.153661235204005 1.33283036699285 0.02831
0.02833 2.76757805986533 2.93575499386065 8.61872407275962 0.162051248940589 1.29175702032275 0.02832
0.02834 2.81478919032484 2.8258674147899 8.53761683392532 0.166952854962284 1.26999883174048 0.0283300000000001
0.02835 2.83847701127271 3.10000951098868 8.60194277896201 0.165685500484142 1.31108119977318 0.02834
0.02836 2.79027136737481 2.93864330765365 8.61390200014976 0.161156664715142 1.30257500090285 0.02835
0.02837 2.70334027212721 2.8721547243142 8.55480017087621 0.151560630686275 1.29954283051609 0.0283600000000001
0.02838 2.73501090595918 3.05819225524135 8.60893712330649 0.158912795656499 1.30864282772199 0.02837
0.02839 2.80522536938504 3.08002767612624 8.53556395620678 0.16032365728421 1.28938748493049 0.0283800000000001
0.0284 2.87836916087632 2.91695674197701 8.57016074407491 0.159676827496917 1.31210931063228 0.02839
0.02841 2.64336450029462 2.6960106392408 8.70369806005636 0.154676346680457 1.29497941983255 0.0284
0.02842 2.76614210488165 2.80559130557686 8.59461357772954 0.160564220518769 1.28508989890101 0.0284100000000001
0.02843 3.0332591405676 2.78764780052222 8.63647668762914 0.16373701649293 1.3027900907502 0.02842
0.02844 2.78741735645827 3.05679473817961 8.61398166035138 0.161171943439507 1.28633159532715 0.0284300000000001
0.02845 2.80258687677314 2.76068235912067 8.62937567273988 0.158199607175584 1.31569432402204 0.02844
0.02846 2.78412399967459 2.76555597621116 8.67246078284835 0.156386624562388 1.30969281724317 0.02845
0.02847 2.47740066704685 2.86266129480112 8.77714217598786 0.150545073075823 1.30848531364245 0.0284600000000001
0.02848 2.45008317564508 2.62048525737682 8.74237008256324 0.139064645745199 1.31315296366882 0.02847
0.02849 2.50010690186793 2.53174984267846 8.83427141263983 0.139541441535217 1.33022798125679 0.02848
0.0285 2.46204890130768 2.70629504995236 8.84859983597598 0.14652493897819 1.3284873205147 0.0284900000000001
0.02851 2.47846730384296 2.79222472681459 8.75333006558644 0.146466432619539 1.30718788759977 0.0285
0.02852 2.45024358007155 2.64857802715123 8.84586218314213 0.141983007567938 1.31743883498248 0.0285100000000001
0.02853 2.51474880451761 2.72662482746584 8.85917889972933 0.153145755365569 1.31744427885332 0.02852
0.02854 2.67014327496945 2.84184911539977 8.79667853392954 0.153786705472973 1.30652981840334 0.02853
0.02855 2.43915532986762 2.77673713758115 8.7994043780138 0.146057503334892 1.35203287123205 0.0285400000000001
0.02856 2.37840274980127 2.57029910819076 8.97727033995582 0.136431066785231 1.33411023127135 0.02855
0.02857 2.51836857350127 2.58694559667487 8.87013269685712 0.143718005005679 1.30992793370425 0.02856
0.02858 2.4792495743144 2.80284028910795 8.80471192466868 0.145914568893757 1.33343729513639 0.0285700000000001
0.02859 2.46732376635864 2.77691131820335 8.85006313304139 0.146508989296239 1.33514283763544 0.02858
0.0286 2.67365791106395 2.75015411147853 8.78965016718157 0.159782326682932 1.29362877409005 0.0285900000000001
0.02861 2.88320140692856 2.86950610407992 8.69524311853094 0.155989050158022 1.32868877732341 0.0286
0.02862 2.64449099664812 2.79912058867422 8.81038728797417 0.153080874007351 1.32562682162077 0.02861
0.02863 2.74490247924118 2.74403812780995 8.68909111618036 0.15483177751817 1.28964951438545 0.0286200000000001
0.02864 2.76365397335262 3.01060942422425 8.58949573233517 0.17009599795265 1.28407218867138 0.02863
0.02865 2.71654765514697 3.02698506663579 8.71860805026701 0.163602254315585 1.31967338993826 0.02864
0.02866 2.85661015055211 3.06141239309261 8.55123179468363 0.166308084234959 1.30842871884819 0.0286500000000001
0.02867 2.79355001720485 2.96724223614955 8.73434385946302 0.163288079589567 1.31335749146469 0.02866
0.02868 2.84887261211782 2.83213178502467 8.74591486012366 0.156790431195981 1.30897456693561 0.0286700000000001
0.02869 3.01925832328073 3.26833461392244 8.56669732529832 0.177483963754776 1.29408278547889 0.02868
0.0287 3.15047251189592 3.13437993731531 8.61371611117895 0.174979590088953 1.31031871130045 0.02869
0.02871 3.06421505776107 3.07507910248233 8.61345311687617 0.1713095378378 1.29419244905536 0.0287000000000001
0.02872 2.74969460011788 2.96804832238696 8.73946304512304 0.155831147885592 1.32297862108672 0.02871
0.02873 2.70771034655494 3.067975854798 8.59268417800637 0.163363274076976 1.30410710284347 0.0287200000000001
0.02874 2.91805231534584 3.09813951984316 8.70111429275931 0.167103242053706 1.33937466010897 0.0287300000000001
0.02875 2.87341547183637 2.94511303795575 8.76911076375169 0.164452136386494 1.34416262241149 0.02874
0.02876 2.90499115124532 3.10408331508864 8.67916926488265 0.174384125465813 1.30169138964248 0.0287500000000001
0.02877 2.99241748235647 3.08313090951961 8.65702125897485 0.17106474937654 1.31141798545316 0.02876
0.02878 2.96209447619165 2.95783937119472 8.72749549954737 0.173902849275471 1.29944597567112 0.02877
0.02879 2.88113159325266 2.92206483132619 8.69180189457651 0.160696311614336 1.31610234611619 0.0287800000000001
0.0288 2.47922156370222 2.99742265075427 8.72538113778426 0.145350739739556 1.33252417906904 0.02879
0.02881 2.64116573325885 2.67495773639071 8.83665431057609 0.149802528398831 1.31341460919662 0.0288
0.02882 2.81567464654249 2.84665671130638 8.92833345736531 0.160819775592293 1.34387144766625 0.0288100000000001
0.02883 2.41250885412962 2.85235936446854 8.89226334167887 0.152477874869553 1.33386602025282 0.02882
0.02884 2.55756380865269 2.82605179671704 8.80523290998559 0.155076510697985 1.31602827049112 0.0288300000000001
0.02885 2.74426491120429 2.79460947767319 8.92229764416789 0.156976414936066 1.33965213771988 0.02884
0.02886 2.86893278570434 2.88657478712276 8.82311851623448 0.15959589487035 1.33187764560435 0.02885
0.02887 2.72122565176074 2.85506945815504 8.86024363088878 0.162053371719459 1.34593557304876 0.0288600000000001
0.02888 2.62497738662301 2.82215824557844 8.84849822464485 0.144781567408656 1.34409481637817 0.02887
0.02889 2.51143764909927 2.67990152819005 8.91522062491677 0.143905215742631 1.345498067948 0.0288800000000001
0.0289 2.55737326190573 2.77494528882671 8.89539708418267 0.153350265329542 1.33515451191558 0.02889
0.02891 2.49669194658704 2.59367359170974 8.99357454062706 0.143428944107983 1.33705261415453 0.0289
0.02892 2.44838645089391 2.72676682534083 8.97393868261922 0.144081654622373 1.34867772894785 0.0289100000000001
0.02893 2.39683503547057 2.75464280019603 8.96126271309006 0.138953971994558 1.36087576129637 0.02892
0.02894 2.68066396576561 2.71991531958627 8.99560829622526 0.149327667573718 1.36268290049626 0.02893
0.02895 2.29988440785616 2.71012743099575 8.97946129431944 0.142058133692983 1.34759971673756 0.0289400000000001
0.02896 2.58585911384135 2.87126304627952 9.03464539068134 0.151590211292319 1.37523890241099 0.02895
0.02897 2.53146260520896 2.64241558006435 8.99316208958292 0.143268064013112 1.33239060283554 0.0289600000000001
0.02898 2.49728081912353 2.83847730487175 8.91108814285359 0.151637747018015 1.32386486747659 0.02897
0.02899 2.78188490032191 2.69732868923525 8.94643677183275 0.146125823926287 1.3664535660516 0.02898
0.029 2.63923315948608 2.61749630195301 8.89962863368859 0.148615781700779 1.34255020870652 0.0289900000000001
0.02901 2.70590659696145 2.89759605949162 9.01336746808253 0.158188822234566 1.35616763875848 0.029
0.02902 2.7185309959512 2.79576667339556 8.92681624260814 0.152333778403318 1.32799815342087 0.02901
0.02903 2.67923956276243 2.94400202381715 8.77397342565128 0.157855822284423 1.31820454144965 0.0290200000000001
0.02904 2.66986325597784 3.00412362539257 8.82557849553851 0.163131605509017 1.35123209806796 0.02903
0.02905 2.77739528558365 3.05187023047475 8.97316217147061 0.167683437190927 1.34374647520056 0.0290400000000001
0.02906 2.9241880239409 3.19302476586003 8.8088235424798 0.178679277344811 1.31702414469793 0.02905
0.02907 2.90577783581023 2.92565600367104 8.75884179397705 0.16049185311823 1.3322567897018 0.02906
0.02908 3.11957005186612 3.09016745838259 8.73754939968883 0.176171841332466 1.30623741905586 0.0290700000000001
0.02909 3.05151216634504 3.37113767269755 8.69477904525774 0.186422522626732 1.31891910990975 0.02908
0.0291 3.16815805453776 3.199464793397 8.67902600278002 0.180411166497956 1.32220827294433 0.02909
0.02911 3.10832309759469 3.20199325794381 8.56664300910853 0.179562558126336 1.32268334351624 0.0291000000000001
0.02912 2.99031931219874 3.29109398576595 8.75856741850996 0.176984309286572 1.3324097026703 0.02911
0.02913 3.32767763632939 3.0906875781811 8.65057354805137 0.177646323476985 1.32189600907168 0.0291200000000001
0.02914 3.01839209630103 3.14761267255769 8.73865298595735 0.167032308341388 1.33481335092762 0.02913
0.02915 2.97334665781005 3.16735604858508 8.7582328098515 0.177072818623528 1.31284202596926 0.02914
0.02916 3.05647517559199 3.26966464867774 8.68049203423135 0.172001598671327 1.33593450263851 0.0291500000000001
0.02917 3.13068854830078 3.21713241715205 8.81046742341925 0.186651831513734 1.31874593902458 0.02916
0.02918 2.99482271941118 2.95184015767692 8.76582500096905 0.162508911460978 1.32071498393389 0.0291700000000001
0.02919 2.90591335028535 3.11568981306322 8.78149310896692 0.171128550382473 1.31462115703749 0.02918
0.0292 2.89792230196749 3.05688717268027 8.77225608106143 0.167322940290838 1.34161007585458 0.02919
0.02921 2.76921094008288 3.00649360964437 8.85962403529793 0.158003316297324 1.34951677234465 0.0292000000000001
0.02922 2.85219542593553 2.93261933142011 8.90922508921647 0.15640022020034 1.34147355514857 0.02921
0.02923 2.74705041560548 2.86861423405401 8.89460819367737 0.156656683216567 1.3388696334135 0.02922
0.02924 2.72506998186161 3.13073847807391 8.89276241174048 0.166785459242062 1.36605352481056 0.0292300000000001
0.02925 2.59779159876934 2.90710063859293 9.09750771164043 0.153654167666061 1.36500853423374 0.02924
0.02926 2.56577897485447 2.60975131450942 9.09505393766321 0.151371919911742 1.3392607200436 0.02925
0.02927 2.57519884655605 2.79301435891335 9.13484481721275 0.151930848741323 1.34796850923956 0.02926
0.02928 2.53102171710446 2.78293902651723 8.98540901162604 0.151778567117147 1.36270470457396 0.02927
0.02929 2.66321058556413 2.62917449394874 9.14355770217405 0.145995382338753 1.37320075478382 0.0292800000000001
0.0293 2.61036274428928 2.85390238076736 9.15751836083709 0.158987286041722 1.3538210992294 0.02929
0.02931 2.76282382296375 2.91481833383118 8.98692419647464 0.162826549021665 1.3416402614834 0.0293
0.02932 2.74379456734462 2.84876359257767 9.00216302400447 0.160188683303304 1.35274150110738 0.0293100000000001
0.02933 2.65224912778527 2.96115760503008 8.95109470902078 0.150368622934223 1.36045709952483 0.02932
0.02934 2.80046948069711 2.75506202152171 9.02239864978641 0.153329151137795 1.35039781472584 0.0293300000000001
0.02935 2.87625780329793 3.13510523541595 8.90275451218701 0.172099723452739 1.3472946179005 0.02934
0.02936 2.78047446083915 3.1162659863939 8.83665916922383 0.157508124502185 1.35010365014692 0.02935
0.02937 2.85802723918144 2.86135302570229 8.86974429972541 0.165018714477622 1.34478554724918 0.0293600000000001
0.02938 2.83856930986694 3.01548908768996 9.02126944580187 0.162819054640577 1.36145118323916 0.02937
0.02939 3.01019692028135 3.10665972872946 9.04704043784916 0.171144587033993 1.34177435205544 0.02938
0.0294 2.75167576946965 2.85815522845383 8.87898775068672 0.152712560305443 1.35008460838572 0.0293900000000001
0.02941 2.76181473169371 2.87644492028344 8.96906257543604 0.154473787303435 1.35326875726306 0.0294
0.02942 2.83048172688022 3.065384292429 8.95975719769926 0.167990496173523 1.35113935443976 0.0294100000000001
0.02943 2.83342809945457 3.09103486240935 8.88886851652042 0.165888037654297 1.36108498153957 0.02942
0.02944 2.75110217272121 2.93315954478464 9.00245899338029 0.155343672745747 1.36311493573761 0.02943
0.02945 2.81370369262933 2.79863773196796 8.93914548305692 0.158825633961334 1.3375006863109 0.0294400000000001
0.02946 2.82972742567419 3.09145907800703 9.00914855698576 0.164376415362735 1.36616688766332 0.02945
0.02947 2.84037097886113 2.95612627113115 8.96716274665899 0.161714386610831 1.35539540111189 0.02946
0.02948 2.97469627228289 2.94190712913936 8.9290483638544 0.164496893682393 1.3374183556496 0.0294700000000001
0.02949 3.05737844284889 3.02974827562746 8.95400938187369 0.175105820054172 1.37060551472519 0.02948
0.0295 2.73297731089818 3.08367683437997 9.05542269711527 0.159520781230031 1.37804347744105 0.0294900000000001
0.02951 2.82309155177365 3.08199068688874 9.04413848534102 0.168643966056919 1.35588242317596 0.0295
0.02952 3.04285384155259 3.20103869067032 8.97909517932255 0.18039081769066 1.34275197882425 0.02951
0.02953 2.8661020377157 3.14524473387258 8.77566382001984 0.168498748412482 1.32538787131943 0.0295200000000001
0.02954 3.09264328419418 3.18994760915921 8.87842492821106 0.179769801892515 1.35728113588086 0.02953
0.02955 2.93921090806381 3.29460326962384 9.01863740025276 0.181985344046719 1.36312582109948 0.02954
0.02956 2.92614898808706 3.1392274865712 8.93673833793563 0.171875687035081 1.33001700988309 0.0295500000000001
0.02957 3.09489026785303 3.07542145139517 8.82385915174489 0.179022643335716 1.35288401391515 0.02956
0.02958 2.83450218668846 3.0989519889661 8.90274103016384 0.16718295173388 1.36293470478123 0.0295700000000001
0.02959 2.87660207201256 3.12814607502288 8.92431079824073 0.167608466018536 1.35609856100942 0.02958
0.0296 3.28624182196387 3.19052712507421 8.80374603785651 0.181372463509654 1.35795641073094 0.02959
0.02961 3.23716052032404 3.23571239132639 8.86313898786694 0.186250953353287 1.33097688715388 0.0296000000000001
0.02962 3.08472816550768 3.19407764124995 8.91079754534828 0.177092723898127 1.34959395430782 0.02961
0.02963 3.06117019792905 3.07984123490927 8.83364901103573 0.167673791350384 1.34858935665926 0.0296200000000001
0.02964 2.99341137333437 3.15653219583316 8.90291743070306 0.171905209010466 1.37214904426861 0.02963
0.02965 3.00364223307505 3.04221757338726 9.1004041342682 0.168824092858466 1.36648469546323 0.02964
0.02966 2.83387917552845 2.96580023842489 9.05869838363371 0.166788116091776 1.33476090763168 0.0296500000000001
0.02967 2.73614997027475 2.86344834707362 8.94715584127223 0.156266719643694 1.369301589594 0.02966
0.02968 2.50853408384288 2.79389248137243 9.20568473302608 0.153839724619443 1.3791940290564 0.02967
0.02969 2.48025529383939 2.79523794698125 9.19965909976542 0.149253987756701 1.36631686720956 0.0296800000000001
0.0297 2.70390300942785 3.03267597936902 9.18884015318514 0.157758943505958 1.39134753446729 0.02969
0.02971 2.72129389553 2.89748568982437 9.19704871479105 0.16031992233931 1.36949379593538 0.0297000000000001
0.02972 2.72440160696644 2.9536470119088 9.14028903686489 0.162858590257343 1.36144353749667 0.02971
0.02973 2.71786832111882 2.92761767457489 9.07354465807829 0.160291913226423 1.38026646501821 0.02972
0.02974 2.67093575837484 2.83977403955169 9.22891494971394 0.152519921668616 1.38826052650951 0.0297300000000001
0.02975 2.41959094540958 2.67174442060611 9.28933292626323 0.141594031398792 1.38258982344309 0.02974
0.02976 2.58129995303005 2.81675194486096 9.14868533124434 0.159899392232112 1.34792360390305 0.02975
0.02977 2.87018002521142 3.09157464615135 9.09150477912785 0.167159077613037 1.36792481699455 0.0297600000000001
0.02978 2.83076791935954 2.89623801517696 9.14696814862218 0.159801105511116 1.38441667811354 0.02977
0.02979 2.88385920200206 3.02667259224449 8.96661821820576 0.166449778515471 1.35348241056619 0.0297800000000001
0.0298 2.78525224786618 2.97076317845585 9.03562459891989 0.169134189167693 1.36291555949032 0.02979
0.02981 2.89671812460417 3.09211961160255 9.01458449747377 0.172500635589817 1.38313014508435 0.0298
0.02982 2.87715909234316 3.07579686957915 9.10293075434597 0.164232298366623 1.35973181136185 0.0298100000000001
0.02983 3.019756639661 3.24551979388833 8.94443706781723 0.174464584088553 1.36483924173563 0.02982
0.02984 3.28426796785401 3.19483888380678 8.89888773521497 0.184480547078971 1.34999381949063 0.02983
0.02985 3.0169103685333 3.27583605666078 8.96487637284982 0.17808363986901 1.33878511841546 0.0298400000000001
0.02986 3.17897956334616 3.29709825466394 8.76084749832561 0.174589338692242 1.3527634077177 0.02985
0.02987 3.14408920967643 3.1743697318788 8.88175290855425 0.182963075785344 1.32623147587666 0.0298600000000001
0.02988 3.0780129598827 3.42936149990746 8.7653789652798 0.180794772859287 1.34046778548956 0.02987
0.02989 3.22614063287355 3.36427710729735 8.89270375196331 0.187934788694679 1.34174777870829 0.02988
0.0299 3.25713379397041 3.29130442569712 8.81989375875221 0.182808841735929 1.33930710242574 0.0298900000000001
0.02991 3.04920445579777 3.65986329304443 8.75662893318042 0.190701704116492 1.3493239816397 0.0299
0.02992 3.06474020222415 3.33882108435295 8.9407103778419 0.184721710575428 1.36827097204189 0.02991
0.02993 3.07480876056554 3.14378479816277 8.9636514076373 0.174367732007247 1.37374866637924 0.0299200000000001
0.02994 3.06539749061 3.16162111050869 8.96176837921588 0.173518755633168 1.34996090069734 0.02993
0.02995 3.09367777497194 3.1635475162167 8.9190712054314 0.174783213382335 1.34747753757497 0.0299400000000001
0.02996 3.15851180582189 3.21566852296394 9.01188995772632 0.17711313520925 1.3774423821323 0.02995
0.02997 3.12940287342116 3.03899511027436 9.05486188153818 0.16842621523729 1.37019884577657 0.02996
0.02998 3.05041060435713 3.18494635683773 8.88684615934316 0.169832700493951 1.33556320895232 0.0299700000000001
0.02999 2.98683495440793 3.15693274346686 8.99243447967187 0.162083706928178 1.39128229579315 0.02998
0.03 2.83676071554465 2.90038322691511 9.15425450058271 0.16422535265496 1.36813231893555 0.0299900000000001
0.03001 2.80687874691293 3.10267519288071 9.14775665003044 0.158914903268464 1.3808045529434 0.03
0.03002 2.79135354696336 3.01093047386246 9.10830430560918 0.159722129363178 1.38583784921853 0.03001
0.03003 3.01847429745878 3.16728207924561 9.11023717317287 0.170309835108934 1.37980487680622 0.0300200000000001
0.03004 3.08478774662846 3.24996381621495 9.17082754667241 0.177776397088184 1.35352096157568 0.03003
0.03005 2.96158461185896 3.12640074406255 8.95642941129601 0.169338775501928 1.35707625571109 0.03004
0.03006 2.94525240201313 3.06173318786991 9.11911772887301 0.167343342212778 1.3900781083283 0.0300500000000001
0.03007 3.0116831660012 3.11182067157773 9.16964478222268 0.174221779488435 1.38723743371733 0.03006
0.03008 2.79152902340466 3.05011520019612 9.13486312902285 0.164592291467582 1.36200741535847 0.0300700000000001
0.03009 2.84427688491913 2.96259426654267 9.14100191926043 0.16784155180938 1.37851039926587 0.03008
0.0301 2.73150926527003 3.2218746230852 9.19736599154429 0.164074086833495 1.39522346913563 0.03009
0.03011 2.78020803050005 2.99901719208512 9.26973587660299 0.160594283754832 1.38078453885863 0.0301000000000001
0.03012 2.87634172440262 2.99388335896481 9.246263623682 0.165740471793196 1.38527790094867 0.03011
0.03013 2.8474565587704 3.09303178567913 9.21888720830374 0.170715500093029 1.38801147187123 0.03012
0.03014 2.62415215652066 3.04662746464361 9.26826425816884 0.156088558990136 1.38360744734488 0.0301300000000001
0.03015 2.69706381624075 3.00322611535919 9.22884168730924 0.160052003970164 1.38828501520104 0.03014
0.03016 2.87107480001095 3.08166914860792 9.15481359061321 0.166720631894968 1.39146063847634 0.0301500000000001
0.03017 2.69056317794561 2.8576317312555 9.2457434545127 0.154658860848929 1.39775172015658 0.03016
0.03018 2.83448873596785 2.93951104770109 9.28240405402953 0.163208546084152 1.37402561495065 0.03017
0.03019 2.96763613599295 3.17895384658709 9.1455227949672 0.179397645224368 1.37580194716146 0.0301800000000001
0.0302 3.177187800307 3.43467817675698 9.1383429711718 0.186286145825412 1.38986701607796 0.03019
0.03021 3.01008361959127 3.14401791739194 9.14151925849619 0.171599243864065 1.35664387422365 0.0302
0.03022 2.96508188354353 3.21946557469849 9.08297711266466 0.1751872441224 1.40008463856072 0.0302100000000001
0.03023 3.23091574072683 3.29141993047527 9.13592726823952 0.185583653206769 1.38968693913736 0.03022
0.03024 3.32883681954523 3.36491387124457 9.11992785470775 0.194260397312199 1.38714737882704 0.0302300000000001
0.03025 3.2648010816671 3.33913370391953 9.10985123576236 0.182410730791842 1.38019814088145 0.03024
0.03026 3.27241043407803 3.33779380074579 8.97007147756493 0.185506811231697 1.36312121087391 0.03025
0.03027 3.25517260250456 3.59407973964452 9.01915972460925 0.195296789398311 1.38612434869372 0.0302600000000001
0.03028 3.3363945597247 3.29668949452179 9.02460760383399 0.177813200672428 1.37537417120584 0.03027
0.03029 3.23030852588688 3.34869192220729 8.93658368403933 0.18662291594612 1.36680288064073 0.03028
0.0303 3.40793330339631 3.58621618626642 8.88207696398023 0.193011494246175 1.36626677614412 0.0302900000000001
0.03031 3.63251559409924 3.54031771632471 8.89554546474123 0.193331225820516 1.35191934392301 0.0303
0.03032 3.38289550490456 3.54718363552826 8.83258439709278 0.202128087801603 1.34426061525442 0.0303100000000001
0.03033 3.52435678458607 3.50766570204923 9.01085428796942 0.192829180290557 1.3671477611304 0.03032
0.03034 3.37586073626377 3.4979264970519 8.98726595422527 0.185496172391728 1.39061975642598 0.03033
0.03035 3.18776926365226 3.1844623003493 9.15417842905798 0.180935973239401 1.38436047174862 0.0303400000000001
0.03036 3.22734405146121 3.4604946701476 9.06562803502281 0.184269755358647 1.36062878621876 0.03035
0.03037 3.21842073647164 3.42846802989334 9.03041765154455 0.184675776754595 1.37804233433449 0.0303600000000001
0.03038 3.09521057808538 3.31179490172216 9.1338425395036 0.170828937270656 1.39533098198127 0.03037
0.03039 3.06428091090434 3.36657205369936 9.24968938660189 0.180637725454328 1.39302440171282 0.03038
0.0304 3.12782771968134 3.41416546649828 9.11816806935411 0.185819751521418 1.36499679973901 0.0303900000000001
0.03041 3.07450016734794 3.16377220258445 9.17318394245009 0.171407559817624 1.38850498341901 0.0304
0.03042 3.04820212596746 3.08655988854051 9.21459504898042 0.166553433500995 1.39565277763824 0.03041
0.03043 2.96688675817181 3.0490662511203 9.22823930122194 0.166921158481979 1.39791578325838 0.0304200000000001
0.03044 3.05661546692927 2.95431470085306 9.27932884384942 0.168086319560243 1.40437668146573 0.03043
0.03045 3.10383143771168 3.13512180814798 9.22257140455525 0.168888249765996 1.38514019226346 0.0304400000000001
0.03046 2.90956938866001 3.18182887347393 9.22757873285031 0.165998636321834 1.40310401681883 0.03045
0.03047 3.0276235378102 3.19257645303656 9.23699887607311 0.175526173209038 1.40468903204685 0.03046
0.03048 3.26403417664457 3.10331350541083 9.21817737746286 0.180108231475761 1.39220443477359 0.0304700000000001
0.03049 3.08087407666114 3.14834141668289 9.30023883256831 0.176602910326675 1.38778610845997 0.03048
0.0305 3.14538791349395 3.24198929422432 9.10172813469817 0.177962246349883 1.39241445398009 0.03049
0.03051 3.20910368699674 3.27086277390315 9.17103754773348 0.179735131567129 1.41545307407829 0.0305000000000001
0.03052 3.20920208159475 3.29693295577659 9.1013520142514 0.18544995149516 1.37594818230451 0.03051
0.03053 3.19912682972242 3.16827387684405 9.17376576832786 0.176276587067188 1.40676198541162 0.0305200000000001
0.03054 3.21781173507857 3.2722169561004 9.09194764871781 0.18311675146694 1.36760969333299 0.03053
0.03055 3.22961929605034 3.37882902570876 9.10670132209389 0.185408991562354 1.38037467580262 0.03054
0.03056 3.30504819260393 3.2881416258489 9.10294215815348 0.181914916076235 1.3816284793063 0.0305500000000001
0.03057 3.28356010264459 3.29078225383993 9.03478733121231 0.192820594597352 1.37633218989228 0.03056
0.03058 3.29118774468371 3.39013797161381 8.9454452540687 0.185012617363387 1.38808776901041 0.03057
0.03059 3.30276156040809 3.41049646074177 9.07310045051055 0.191228719009492 1.39822418972504 0.0305800000000001
0.0306 3.35868006686843 3.35276924113364 9.10478968914511 0.193061361859601 1.37508579335268 0.03059
0.03061 3.1947806691027 3.48652197397299 9.08106131030487 0.182226516448801 1.40369997502273 0.0306000000000001
0.03062 3.2721733552287 3.37071687026764 9.1149738072074 0.191379273149525 1.3838241825228 0.03061
0.03063 3.16058611032594 3.31946568176452 9.14168820424064 0.174108529997664 1.38157508424618 0.03062
0.03064 3.40657949455192 3.41898438557865 9.07075493740454 0.192774349873646 1.38267415673974 0.0306300000000001
0.03065 3.312488228955 3.37292786465876 9.02518122407335 0.18447739399806 1.39134971337764 0.03064
0.03066 3.27695290490747 3.23745148549624 9.11682495519825 0.181251418819501 1.38785832695252 0.0306500000000001
0.03067 3.28511935951708 3.46074547632411 9.22877197401506 0.188921484060254 1.40062626861666 0.0306600000000001
0.03068 3.21583973236902 3.33264228305323 9.10639067957123 0.176987078875855 1.39541063766298 0.03067
0.03069 3.16756825760941 3.22376884392873 9.19033946389662 0.177480045632094 1.39148515124399 0.0306800000000001
0.0307 3.25870864563365 3.32304457970002 9.12239012739636 0.188807813805638 1.40209523995561 0.03069
0.03071 3.20858095194276 3.43844489303008 9.25407104372169 0.188340206922818 1.40055125890209 0.0307
0.03072 3.13581557210888 3.41098864215811 9.16580578111145 0.180368407184391 1.39424181418264 0.0307100000000001
0.03073 3.27018114360637 3.36916811238353 9.26948808146247 0.19652452680348 1.40970450328665 0.03072
0.03074 3.40024155129214 3.2425764391475 9.27378167811475 0.180852641015854 1.40156179179618 0.0307300000000001
0.03075 3.05807554259278 3.26596549127254 9.24579232748478 0.179239433826158 1.3920231984263 0.03074
0.03076 3.16572258526189 3.40025784765471 9.25467927050293 0.181133451374539 1.39781161599119 0.03075
0.03077 3.13161783144623 3.37289048502345 9.30335892531601 0.183535318147017 1.38808354048097 0.0307600000000001
0.03078 3.16810529726364 3.35875233758611 9.19819464319239 0.18774515546834 1.3831924177034 0.03077
0.03079 3.27203563339777 3.33678561082094 9.14030565465326 0.184270535949445 1.4004665039021 0.03078
0.0308 3.3451310122329 3.31815288215393 9.30900392558229 0.19127573646756 1.40521085676133 0.0307900000000001
0.03081 3.15404306519371 3.35480934685791 9.21557855182724 0.184046002198052 1.39804935618789 0.0308
0.03082 3.13274768414511 3.26676288404228 9.32952287694162 0.178780108829624 1.41552907060922 0.0308100000000001
0.03083 3.13773859096468 3.12377902370983 9.32496319895595 0.175032103908932 1.41947113556757 0.03082
0.03084 3.14818858095961 3.20605713166577 9.22286640440803 0.175317881593365 1.40726225173237 0.03083
0.03085 3.09729354765554 3.19636026262984 9.34894620818037 0.1816956987467 1.43149050258321 0.0308400000000001
0.03086 3.0696616049638 3.13406221922931 9.32875997272635 0.168056862886782 1.41581356845245 0.03085
0.03087 3.25999410351968 3.35790654702564 9.26888920136038 0.188973472516039 1.3954710190003 0.03086
0.03088 3.19982377661045 3.30379055313322 9.29607544030912 0.179185198664925 1.41634595436987 0.0308700000000001
0.03089 3.09878519909519 3.25482510739029 9.23600875455182 0.17540219675745 1.38281169593532 0.03088
0.0309 3.26688112963911 3.43535099338639 9.24668589027956 0.197209223533273 1.41082501365429 0.0308900000000001
0.03091 3.26082078532463 3.21911570079454 9.2882443832205 0.182676639918743 1.39464729979857 0.0309
0.03092 3.29320592921955 3.27242630097509 9.17572898970234 0.185209588566277 1.39840576798841 0.03091
0.03093 3.07890950860276 3.2669434475771 9.34985258897687 0.178975825684038 1.42946020005694 0.0309200000000001
0.03094 3.01239964812445 3.30146553724388 9.29593032720131 0.177204768336984 1.38642377203278 0.03093
0.03095 3.03042309969993 3.29553501592916 9.25381823697616 0.175487956726608 1.41148347828355 0.03094
0.03096 2.93171495351687 3.40660780862428 9.30441143799562 0.176686628808754 1.41432035797767 0.0309500000000001
0.03097 3.19722085329134 3.11700636087309 9.27245899596195 0.175968934733302 1.42920471614533 0.03096
0.03098 3.41231244826444 3.49190926478826 9.17469573409951 0.194010763640132 1.39273306085046 0.0309700000000001
0.03099 3.35713717076987 3.45689000274945 9.20357410276875 0.198772354505725 1.38560175350117 0.03098
0.031 3.37425173092229 3.29041142119627 9.2111025424154 0.192029002062642 1.39368836378083 0.03099
0.03101 3.32611066386726 3.51343368450477 9.13750255604983 0.191137599159155 1.40254665187776 0.0310000000000001
0.03102 3.40561238057887 3.5582396808643 9.18696181167455 0.194990442982124 1.38992404817441 0.03101
0.03103 3.38013625303961 3.21975206525901 9.10820400507203 0.190138100479018 1.39304963865567 0.03102
0.03104 3.30235553956176 3.43601487776014 9.3961090170744 0.185358737353028 1.43657031059719 0.0310300000000001
0.03105 3.43822409016022 3.52627261565057 9.17510970074292 0.196549411571463 1.39448126804084 0.03104
0.03106 3.39023113179107 3.60998135802917 9.15295489990975 0.194341951485347 1.41006659380387 0.0310500000000001
0.03107 3.3929629531488 3.61951672178423 9.08235201866198 0.194589561785147 1.40099376580156 0.03106
0.03108 3.46603196703094 3.67187387195191 9.07205438331538 0.200885812877698 1.38632590042964 0.03107
0.03109 3.3903038188337 3.40683523696533 9.15506888798662 0.185611876532454 1.40156570947653 0.0310800000000001
0.0311 3.51386775668478 3.46656942991414 9.08368953856987 0.193479831118421 1.40573180119064 0.03109
0.03111 3.27020473630885 3.44148914371615 9.24524712994943 0.196691443291631 1.39442679790212 0.0311000000000001
0.03112 3.29651624132738 3.6165825506548 9.16961621737732 0.191974629409798 1.40520524231109 0.0311100000000001
0.03113 3.35163372775791 3.52890245579622 9.21945394279181 0.190523814492299 1.40011670109118 0.03112
0.03114 3.33663960472997 3.51534958613852 9.10770880741385 0.190934176581206 1.39651921813811 0.0311300000000001
0.03115 3.53644000840551 3.4874721616486 9.09711769935766 0.198393977259424 1.4195663173072 0.03114
0.03116 3.31770139828131 3.54640547443251 9.32747347608706 0.193813056099156 1.40370602906311 0.03115
0.03117 3.52553009214152 3.41987950060832 9.19726522118724 0.201113054851501 1.3884090875212 0.0311600000000001
0.03118 3.34111262165264 3.36826237978735 9.3592818612097 0.187147752029979 1.41096164997873 0.03117
0.03119 3.17812156823797 3.46554473121295 9.22179947442464 0.185742118177992 1.39239865911141 0.0311800000000001
0.0312 3.30619069125325 3.45193824826844 9.30949321701725 0.194486056172372 1.42051126446375 0.03119
0.03121 3.32325712747274 3.20360997531985 9.43087177217484 0.188036310125804 1.40671445029342 0.0312
0.03122 3.29400295346576 3.32846283264899 9.39171217248444 0.180220169690202 1.42789943998423 0.0312100000000001
0.03123 2.99367961901459 3.30849704369304 9.44090259941743 0.178696290129928 1.42970749212015 0.03122
0.03124 3.28617016671895 3.41288313005054 9.36467759994064 0.181746811152766 1.4222522893263 0.03123
0.03125 3.28203270677772 3.29598790963922 9.44874378050755 0.183648011352483 1.43208819479942 0.0312400000000001
0.03126 2.9982554747179 3.38997217727544 9.43494526084793 0.177118893011462 1.42656864735998 0.03125
0.03127 3.04138721546673 3.24888730691951 9.49176581462213 0.175354130067098 1.45089076664332 0.0312600000000001
0.03128 3.11314839736959 3.17196972939328 9.51508308086927 0.175786275570236 1.44005080823022 0.03127
0.03129 3.17432234706681 3.32391633641669 9.52066378751428 0.182501062572812 1.42492486212118 0.03128
0.0313 3.0915142008159 3.33039935652524 9.43541345254474 0.182649658892531 1.41739537114018 0.0312900000000001
0.03131 3.02070009025536 3.36147798476807 9.47960791363161 0.176386429490002 1.43825842675995 0.0313
0.03132 3.25403064104881 3.47824767374942 9.48253545383102 0.187856410957686 1.42665310147002 0.03131
0.03133 3.29010330166521 3.30907818373455 9.40836319573637 0.188593688975613 1.4306857492247 0.0313200000000001
0.03134 3.18091266985919 3.45258259273128 9.52870250375927 0.182836273399329 1.45304240017273 0.03133
0.03135 3.38208652006125 3.62738970311256 9.27443615449078 0.200311446627451 1.41414408558906 0.0313400000000001
0.03136 3.39658897852855 3.5060547137017 9.40764088618749 0.201255224769664 1.42663882358411 0.03135
0.03137 3.30913061070633 3.46127496106228 9.22624336452609 0.183711666988773 1.39807004186162 0.03136
0.03138 3.31730627772607 3.70791504460471 9.1775738355155 0.200577076628467 1.42385456028081 0.0313700000000001
0.03139 3.38834514473303 3.61568705647289 9.41848720171327 0.194787119809569 1.44757288232909 0.03138
0.0314 3.40570793664441 3.45966653594876 9.17012958702427 0.193247553045795 1.40420722126186 0.0313900000000001
0.03141 3.40381441874831 3.41562684054228 9.15046724609758 0.197327344477354 1.40098483237952 0.0314000000000001
0.03142 3.48639568624801 3.50515927236694 9.29122546491046 0.200969813849563 1.40651960748569 0.03141
0.03143 3.38515450790601 3.76047341592189 9.13611670598987 0.193761098670245 1.41477207837929 0.0314200000000001
0.03144 3.35681234393107 3.55754987618841 9.22053992759849 0.190454763887801 1.42021571542238 0.03143
0.03145 3.4250301821738 3.68382186889196 9.1764259515687 0.204376916317323 1.40968836273383 0.03144
0.03146 3.43502740089788 3.82904222017402 9.30674552272171 0.196202913014294 1.42405229193278 0.0314500000000001
0.03147 3.41996539840567 3.61506722872151 9.2677746975922 0.197889554565708 1.39905942522465 0.03146
0.03148 3.49398909338419 3.60017409029895 9.20003353727957 0.202424375419061 1.40170069923883 0.03147
0.03149 3.33851167786142 3.64377909759196 9.38914116221136 0.195239612973198 1.43132003565293 0.03148
0.0315 3.4042727847696 3.3984324212428 9.27182933997886 0.191163482121166 1.3974499342527 0.03149
0.03151 3.33994352499817 3.48212123909735 9.32818920077391 0.192868287008064 1.41211034105148 0.0315000000000001
0.03152 3.30842133951478 3.42955954044962 9.34016108462748 0.179902150375342 1.41868014264714 0.03151
0.03153 3.43264374725501 3.5082516848263 9.29217752941682 0.192370392055279 1.43553693643387 0.03152
0.03154 3.10001336907472 3.41042617091249 9.46709314575762 0.1838675069557 1.43984863646577 0.0315300000000001
0.03155 3.22011959166708 3.54682670459023 9.42397702139432 0.193415780284819 1.44178494933695 0.03154
0.03156 3.16735983130295 3.39126258529038 9.51322797291023 0.185123729384717 1.43297502955622 0.0315500000000001
0.03157 3.21480293822725 3.51106130876119 9.45701250324199 0.193974575799299 1.42833338706034 0.03156
0.03158 3.11339544339934 3.43335515392031 9.42297675264052 0.181565039561967 1.41991017202656 0.03157
0.03159 3.21590471725357 3.47315016878797 9.45472174936282 0.181838695758867 1.43249833541747 0.0315800000000001
0.0316 3.2406187252478 3.526856255692 9.3698402177532 0.194173604440377 1.41125720340954 0.03159
0.03161 3.12485655977909 3.34254773316959 9.37945639544181 0.178374285039102 1.43703373143578 0.0316
0.03162 3.32337714693088 3.37476667744395 9.45031602396167 0.185408632190604 1.43190237833111 0.0316100000000001
0.03163 3.34236504197245 3.39308217496413 9.40852399252705 0.190848872342222 1.42934890520216 0.03162
0.03164 3.29473549194168 3.39952573302805 9.41413451534591 0.184068936733972 1.44058559406125 0.0316300000000001
0.03165 3.36804994923823 3.42380083251532 9.45347809654238 0.187791328297498 1.42784611639027 0.03164
0.03166 3.23027956107582 3.52099888079078 9.36647574376215 0.191754643446873 1.43830630957572 0.03165
0.03167 3.45469761095538 3.3369964331597 9.38884322068263 0.190538509394664 1.44223278044579 0.0316600000000001
0.03168 3.30984546479838 3.57977298277302 9.45629947126737 0.194676349716859 1.42971563726046 0.03167
0.03169 3.44132465818854 3.45148248429421 9.31098659490817 0.191495522420392 1.42834705595023 0.03168
0.0317 3.36387431214983 3.62153960059367 9.36160477355276 0.199553343615474 1.43447389204327 0.0316900000000001
0.03171 3.539022145806 3.64183956900015 9.35786017816201 0.201299161654484 1.41910508680852 0.0317
0.03172 3.62663123201403 3.61284149882523 9.31600010709646 0.20556291562738 1.41352029457169 0.0317100000000001
0.03173 3.61724537818498 3.65361469454541 9.30799638161781 0.202512388389915 1.42725459103357 0.03172
0.03174 3.71428215698677 3.72291357902534 9.27212893616773 0.207801807023249 1.42411843814477 0.03173
0.03175 3.55396741027993 3.72672020966638 9.33188066042781 0.207877547441152 1.42221006464123 0.0317400000000001
0.03176 3.42027004297902 3.81196999785439 9.28247072404426 0.205172318225409 1.42036654821198 0.03175
0.03177 3.4564499042778 3.74640012500125 9.29884107788253 0.202697997483358 1.42221215736762 0.03176
0.03178 3.64757929196345 3.71061890909582 9.33348608821303 0.206098566036774 1.43702045526173 0.0317700000000001
0.03179 3.63760297890969 3.68371673213053 9.28894931712072 0.196513067021677 1.4324902685327 0.03178
0.0318 3.59133178794586 3.6138496574945 9.26985222788037 0.199612255634823 1.41328337137061 0.0317900000000001
0.03181 3.33507357161219 3.54668466405372 9.32331080077361 0.195334495590478 1.43723263284558 0.0318
0.03182 3.39041199476906 3.42411611815648 9.59162701056629 0.19445396758082 1.46443600700647 0.03181
0.03183 3.63874417750142 3.48569024005423 9.45887270216657 0.196997514011903 1.43744979602076 0.0318200000000001
0.03184 3.58793660746299 3.4842278837262 9.41437675230902 0.20256200499566 1.42789784263503 0.03183
0.03185 3.42708538258969 3.652770601896 9.46970219174064 0.201305474308087 1.42857253605235 0.0318400000000001
0.03186 3.31328223483838 3.53062072704192 9.4454706148127 0.1924526587159 1.43884150220778 0.0318500000000001
0.03187 3.35793456044008 3.3183647489793 9.58581447090658 0.187440077611899 1.46242393719886 0.03186
0.03188 3.12358843155796 3.54016560332988 9.5955582723189 0.189635580115349 1.45280601755688 0.0318700000000001
0.03189 3.08482580458909 3.41733563617437 9.61350371766748 0.179965560794095 1.45339107856203 0.03188
0.0319 3.17059405284973 3.43210420806121 9.66008625008575 0.18788096445642 1.45168772541133 0.03189
0.03191 3.15954101799786 3.50871812916654 9.54839788997151 0.186244973344676 1.46380130967908 0.0319000000000001
0.03192 3.20871641935946 3.6509966989872 9.66475794438832 0.190039135918238 1.47046799835428 0.03191
0.03193 3.35109822909327 3.57291539192163 9.50453996242192 0.19106389255238 1.44085855374436 0.0319200000000001
0.03194 3.33566002923085 3.43365111668149 9.48329490011646 0.188647147948016 1.44725793992252 0.03193
0.03195 3.33440928343468 3.61660148238172 9.54257207534902 0.194258904288045 1.46325174668094 0.03194
0.03196 3.29859418063353 3.49893434491767 9.51957505507117 0.192584479655651 1.44068740801518 0.0319500000000001
0.03197 3.36257858752939 3.43337567227178 9.45212696730571 0.191213096493208 1.43481607996417 0.03196
0.03198 3.39344197310907 3.52131773974171 9.45846798457987 0.189300912671489 1.45323371837129 0.03197
0.03199 3.51292357091723 3.59605402553473 9.4270850670947 0.199050088187639 1.4501435501561 0.0319800000000001
0.032 3.59056839368842 3.53777430600677 9.5175071224038 0.212964705498288 1.45241501418357 0.03199
0.03201 3.47034591023486 3.60519921557653 9.4271379526225 0.198119746838113 1.44154307046257 0.0320000000000001
0.03202 3.51228880187869 3.66634047694338 9.34610449330101 0.204445986183323 1.42290070774986 0.03201
0.03203 3.71004904136972 3.95428275219583 9.28522901843228 0.214025773973719 1.43348865830214 0.03202
0.03204 3.47670198587335 3.65713972257431 9.406169880104 0.194407644404127 1.42734322448718 0.0320300000000001
0.03205 3.62014748657817 3.64880913053878 9.33591677414086 0.201770726611502 1.42883598065902 0.03204
0.03206 3.72184040588033 3.70141539405652 9.4162645460515 0.212993811863689 1.43072872490753 0.03205
0.03207 3.64128062297637 3.72620821902064 9.30109797364152 0.209456133336426 1.42187639724985 0.0320600000000001
0.03208 3.56111478461039 3.70416678742433 9.44882039136175 0.200028492113612 1.47883061504176 0.03207
0.03209 3.41227484444494 3.43242176082124 9.62697613307143 0.190387416896251 1.45707091296794 0.0320800000000001
0.0321 3.4547413326127 3.69024134524564 9.47330129650649 0.204943796873575 1.42721043323517 0.03209
0.03211 3.33335613864075 3.66120252019551 9.57089384163445 0.199164467809248 1.45966502536625 0.0321
0.03212 3.18029587581226 3.51170648766222 9.49958043852891 0.186497576713795 1.44522100801678 0.0321100000000001
0.03213 3.274175751145 3.4536168281867 9.65004862767205 0.190814756233211 1.46966404234007 0.03212
0.03214 3.47065186014167 3.60000992520789 9.46857216941823 0.193948315347508 1.44769609797877 0.03213
0.03215 3.43271584152613 3.60388189632739 9.49643769201703 0.193395441756098 1.44180844104459 0.0321400000000001
0.03216 3.57193722626133 3.712327585314 9.47510571124283 0.211782198987766 1.41769498004386 0.03215
0.03217 3.57163019362216 3.51541510495471 9.39896917175559 0.197209936832333 1.44381907243266 0.0321600000000001
0.03218 3.33422403790285 3.57507656250698 9.54337623004213 0.198601700565209 1.45098408420528 0.03217
0.03219 3.41409542988048 3.54441571306632 9.55025886834644 0.195318775427039 1.47432805594401 0.03218
0.0322 3.44472592170863 3.72070746776644 9.52152162991391 0.199814492007447 1.44421146957709 0.0321900000000001
0.03221 3.32962265063099 3.79326069792718 9.50899689600528 0.199893509186115 1.46256388933087 0.0322
0.03222 3.30838254780845 3.55316393905097 9.62271816155434 0.193406925626136 1.46110808893043 0.03221
0.03223 3.39497419796014 3.55016858167091 9.58393171938109 0.188811142805084 1.46891484815946 0.0322200000000001
0.03224 3.44527699881376 3.49134948926589 9.48277946352571 0.198629698463466 1.44943445933778 0.03223
0.03225 3.43654494491885 3.6483723260176 9.53313390657406 0.194457557539265 1.47494781731558 0.0322400000000001
0.03226 3.49797231073742 3.66012670115951 9.55251656882128 0.200069121698663 1.46684400182529 0.03225
0.03227 3.70786903666983 3.65849217904762 9.45281418449253 0.210574303291006 1.42162480838742 0.03226
0.03228 3.44427126337019 3.76353889949364 9.33034231050011 0.200009414199545 1.45284288476409 0.0322700000000001
0.03229 3.557419151359 3.64482345829353 9.43977389316282 0.20107518681013 1.45973056525862 0.03228
0.0323 3.61631850903955 3.74304432784252 9.5309823458478 0.204221881297554 1.44308889858827 0.0322900000000001
0.03231 3.54591693014751 3.6348139316857 9.49486482024194 0.202331720377242 1.44061423446174 0.0323000000000001
0.03232 3.56402162967768 3.65701234870211 9.46125373363784 0.197231031461078 1.45687979294038 0.03231
0.03233 3.56557930844462 3.57107631408892 9.50897345083393 0.197284338036589 1.46387279500763 0.0323200000000001
0.03234 3.71493592278174 3.69491305188686 9.46736861973363 0.211195430714067 1.44133794572596 0.03233
0.03235 3.66785829594861 3.7521504399597 9.48720204273288 0.206478660903775 1.44676874819926 0.03234
0.03236 3.48405532160792 3.38758924330893 9.59678297963684 0.195076808333534 1.46464131566293 0.0323500000000001
0.03237 3.41237736317418 3.53114091513905 9.62264396493722 0.196050836276292 1.47264657573935 0.03236
0.03238 3.62934400840067 3.50689189400014 9.57437194110864 0.205521278340303 1.44923571442577 0.0323700000000001
0.03239 3.58532925330456 3.61401961731777 9.54123977955944 0.198145743419824 1.45519535806015 0.03238
0.0324 3.55649407600286 3.69227503815336 9.47646606865299 0.203177967772787 1.46287550476946 0.03239
0.03241 3.4488613032438 3.6382862249714 9.60980489923178 0.191199367708382 1.47815503569652 0.0324000000000001
0.03242 3.52483324372129 3.67361643481155 9.63946128470773 0.204945186903738 1.44549186006732 0.03241
0.03243 3.53304947027368 3.63038557507584 9.62526225142533 0.19796326495964 1.46176477924711 0.03242
0.03244 3.40684085803988 3.72214044767665 9.57406653545582 0.202007052367106 1.44934956395027 0.0324300000000001
0.03245 3.49157472891597 3.84164356920911 9.46111161170023 0.203866805023537 1.45786511901713 0.03244
0.03246 3.46916399661195 3.83755068500567 9.60280248222567 0.205619436544055 1.4704517012748 0.0324500000000001
0.03247 3.38630635235403 3.74778547928191 9.63167728455382 0.203767427904072 1.44853966830058 0.03246
0.03248 3.60582590933712 3.86388792456224 9.5874973533667 0.2086507241358 1.46037539484436 0.03247
0.03249 3.58762778997229 3.69620431564551 9.6278988747405 0.203564156905494 1.45822179397229 0.0324800000000001
0.0325 3.42643125978974 3.74951249751572 9.48611148678222 0.202923340711456 1.43727961816405 0.03249
0.03251 3.63583038776086 3.87166135233535 9.42481429536318 0.211290943402351 1.47178788297324 0.0325
0.03252 3.54332888180919 3.68443713467094 9.53600120322971 0.202231251510065 1.45767836974138 0.0325100000000001
0.03253 3.58145435621567 3.69802929613321 9.5163963163424 0.201042479447024 1.43031128949782 0.03252
0.03254 3.64775685877941 3.82549989064565 9.5042831329408 0.209737665727732 1.45083722912342 0.0325300000000001
0.03255 3.60599140735298 3.93412395578948 9.44449561436889 0.205278508190394 1.47758152930786 0.03254
0.03256 3.58823899359158 3.55161511916737 9.65915089071801 0.204986133294655 1.44002146293067 0.03255
0.03257 3.5452708529043 3.65869112064154 9.51978714073062 0.204087637480355 1.45748390507921 0.0325600000000001
0.03258 3.52331743629385 3.8339365085491 9.51314089139384 0.197627919012225 1.48672972518613 0.03257
0.03259 3.66525248362947 3.89462707263225 9.53640166141402 0.219052754657738 1.42680975025429 0.0325800000000001
0.0326 3.6884624869678 3.67726072743515 9.45867686130825 0.207549896669651 1.44463405000438 0.0325900000000001
0.03261 3.71943504667033 3.80535892218732 9.53826926773142 0.204274732331377 1.46758763391682 0.0326
0.03262 3.58052167488699 3.76102332665363 9.57463339216839 0.209312077511782 1.46764018820069 0.0326100000000001
0.03263 3.49040570527794 3.5348587349784 9.7057750794821 0.195313797265314 1.47323395227219 0.03262
0.03264 3.51371326108239 3.68260600321092 9.61336031114988 0.201615464754724 1.4561084467475 0.03263
0.03265 3.32190351995462 3.82522549610992 9.59009758530139 0.201200812461823 1.4650446836645 0.0326400000000001
0.03266 3.55583789001962 3.66115089604821 9.65417894239169 0.204953733512032 1.48654574106844 0.03265
0.03267 3.41725061629933 3.54408255134268 9.69208700956457 0.2003489314996 1.46666478678731 0.0326600000000001
0.03268 3.4892262477958 3.50655692218566 9.68871432006817 0.206054343125192 1.45411314461793 0.0326700000000001
0.03269 3.31228792071353 3.51478320415189 9.75060327030902 0.191678831145198 1.46922365039067 0.03268
0.0327 3.52139479818945 3.48669548824935 9.69182091060603 0.196861832450035 1.45507681025461 0.0326900000000001
0.03271 3.40324428251908 3.6807266067747 9.58878704584291 0.19795960341671 1.46391830834207 0.0327
0.03272 3.44913951161122 3.79409121702656 9.63515015059152 0.201415004904397 1.46511376488018 0.03271
0.03273 3.46583671501953 3.64103768206456 9.75011426076676 0.197103717817588 1.48244128110582 0.0327200000000001
0.03274 3.46199675259882 3.78127812163684 9.68103483916673 0.209174341685916 1.46324808823327 0.03273
0.03275 3.39884878436609 3.87522116019093 9.55704660700648 0.211432933392199 1.47562810396661 0.0327400000000001
0.03276 3.57464370995668 3.80003151007034 9.70046765159878 0.204684169583036 1.48244758249671 0.03275
0.03277 3.62864043143162 3.96178785898266 9.55365833234185 0.212491041008968 1.45491552381552 0.03276
0.03278 3.63030635249054 3.84776664703656 9.53218853944281 0.21222149046858 1.44442694259726 0.0327700000000001
0.03279 3.63806431246597 3.72792613909188 9.60478826250432 0.201591699005421 1.46353985393213 0.03278
0.0328 3.67397037369538 3.58519342376319 9.6700972798516 0.200193677919958 1.49071962424508 0.03279
0.03281 3.65312229111727 3.79442961069005 9.62009846264499 0.214677065193974 1.47872689304578 0.0328000000000001
0.03282 3.82147104582888 3.81742485541019 9.62948435970622 0.209471832550199 1.48654875445302 0.03281
0.03283 3.46437822620408 3.6358819651631 9.70414392126809 0.203632654664751 1.46314704373591 0.0328200000000001
0.03284 3.75628945987497 3.96005674103847 9.53135254174978 0.218168169914953 1.4652088563872 0.03283
0.03285 3.51593560011081 3.87068650076839 9.67939926962243 0.199100007356696 1.47901728607776 0.03284
0.03286 3.72018980477158 3.82959270006403 9.48553909584463 0.217410334942119 1.43473150300752 0.0328500000000001
0.03287 3.71757327925388 3.85036854203317 9.5817380470202 0.216622554800263 1.46607943679662 0.03286
0.03288 3.99035668208277 3.91430054569215 9.59622111797274 0.21963287091232 1.47322413678175 0.03287
0.03289 3.85309659151954 3.90264228555976 9.50856518606673 0.209936772749488 1.46886998702317 0.0328800000000001
0.0329 3.83679204031841 3.93930377081941 9.45363478106308 0.223938311185422 1.45235838705523 0.03289
0.03291 3.78407447981345 3.9615554319665 9.4446338163112 0.21461206277618 1.46402256273323 0.0329000000000001
0.03292 3.77000209819813 3.91243769410113 9.56144774592002 0.220850830994633 1.46799196470118 0.03291
0.03293 3.70342876997383 4.06704919519056 9.57059626701148 0.215802644138905 1.4649806143596 0.03292
0.03294 3.83227500735453 3.9066280463263 9.51684508984438 0.218532446849631 1.47668925741738 0.0329300000000001
0.03295 3.56982392014324 3.62546403088963 9.68242891139732 0.203499001083718 1.46279414717623 0.03294
0.03296 3.6028759313172 3.86995435150326 9.67487030101588 0.208358478519972 1.45950159927107 0.03295
0.03297 3.59925832202437 3.74332211129448 9.71172882075372 0.207601528590818 1.47792986848794 0.0329600000000001
0.03298 3.7776939560231 3.92843003663186 9.57071861194505 0.219975874113034 1.4828281402404 0.03297
0.03299 3.67360241245764 3.65479828551203 9.67301893502477 0.203350987055756 1.48320762382865 0.0329800000000001
0.033 3.61468232568109 3.63973963087087 9.60032153954342 0.209509510561574 1.47180564309403 0.03299
0.03301 3.63228294941477 3.78433335118489 9.68657231507215 0.210518286907854 1.46990693540545 0.033
0.03302 3.56525786259788 3.79420422078299 9.65233436238129 0.203694639115642 1.47387507599421 0.0330100000000001
0.03303 3.42168647846797 3.78165088120692 9.69251676031127 0.21033288347749 1.49425367854579 0.03302
0.03304 3.60469528897559 3.69070168501466 9.84888920750916 0.205844792543635 1.49801646496301 0.0330300000000001
0.03305 3.45818793067182 3.79779577888574 9.8412579383053 0.195863249559719 1.50335608440844 0.03304
0.03306 3.4058835492684 3.50106482735529 9.79952346993592 0.192086606754136 1.49044340694335 0.03305
0.03307 3.36422277308881 3.64821897582441 9.88003527312319 0.197408062249674 1.51427709140901 0.0330600000000001
0.03308 3.38426082994383 3.65189926413088 9.81345408185918 0.201657190002285 1.47734257629738 0.03307
0.03309 3.49790871394582 3.7075835454707 9.78884789418572 0.20182690541755 1.48838448256682 0.03308
0.0331 3.36925748721905 3.59148266396517 9.84691901293574 0.196114930715821 1.50390677922062 0.0330900000000001
0.03311 3.68428727748412 3.65029061509393 9.81875922635199 0.196858720596498 1.50630299634443 0.0331
0.03312 3.46449731231376 3.78278901298655 9.66838434233923 0.206274744997641 1.46517900646074 0.0331100000000001
0.03313 3.54587996115809 3.91288477142169 9.65889285213545 0.2079697372151 1.47756643667127 0.03312
0.03314 3.67173434628924 3.81101825265182 9.61567716529964 0.215628556019331 1.47544199592961 0.03313
0.03315 3.78675983980736 3.82473070701399 9.6467068783747 0.218548113749081 1.47216474895992 0.0331400000000001
0.03316 3.70467789078078 3.90964754814751 9.69637964742209 0.219663633510051 1.49293173463428 0.03315
0.03317 3.74059532502127 3.98322890087999 9.66520498213383 0.212596143030323 1.49023318817588 0.03316
0.03318 3.83185650445769 4.00763705880543 9.50075587021163 0.21747667170762 1.47141832573236 0.0331700000000001
0.03319 3.97217607440781 4.21836837447675 9.563248602493 0.22672016259758 1.47627168471979 0.03318
0.0332 3.96189004902325 4.17391760656822 9.44096653167705 0.226294189756406 1.46286837008262 0.0331900000000001
0.03321 3.94221490176517 4.10131919359499 9.53956239053818 0.221216241111636 1.48140312833122 0.0332
0.03322 3.85493008836242 3.9477668827941 9.66243706972783 0.219663771240889 1.48423543570618 0.03321
0.03323 3.89921386900444 3.84700540013467 9.65705759641154 0.218018956485802 1.46809667113374 0.0332200000000001
0.03324 3.67079250520481 3.99080454244921 9.66132148896823 0.210112776014014 1.48877517973534 0.03323
0.03325 3.88572346335444 3.98554095551118 9.55069455148806 0.221376057720408 1.48563083437186 0.03324
0.03326 3.7543503913257 4.08688352881505 9.53358505347578 0.231783745865237 1.46718634581248 0.0332500000000001
0.03327 3.64660070970398 3.96806591160643 9.71388282223912 0.214087317329927 1.49610102360617 0.03326
0.03328 3.65883850305909 3.85646909287334 9.77969199358233 0.216060426380161 1.48891137112652 0.0332700000000001
0.03329 3.53194436794065 3.69604873290306 9.80384684016589 0.203816017034424 1.48274258269683 0.03328
0.0333 3.52074312314903 3.78789691401886 9.80775654215511 0.203527483959736 1.49255070893242 0.03329
0.03331 3.55769624947153 3.77210123085009 9.82938758815596 0.202311255374181 1.49624648883065 0.0333000000000001
0.03332 3.48571862480017 3.64894596678799 9.8000391931471 0.205094101225711 1.4872765453373 0.03331
0.03333 3.44288307959093 3.72447102409605 9.83211311971634 0.205880698651053 1.49285723941485 0.0333200000000001
0.03334 3.60815717021494 3.69479945909334 9.95740538402996 0.207038544106646 1.50204508535457 0.0333300000000001
0.03335 3.35241887771491 3.83476448770961 9.82325674907641 0.204243062241256 1.4876373882011 0.03334
0.03336 3.43785980223183 3.6437587516101 9.88217151850516 0.190357397576742 1.52297194144664 0.0333500000000001
0.03337 3.46120549572913 3.69764642697211 9.87351149150251 0.204260297419207 1.50145724255668 0.03336
0.03338 3.43017181093099 3.70166002127905 9.77403609814158 0.207466743729416 1.48011011882206 0.03337
0.03339 3.38273716708022 3.75715565080749 9.89906169465761 0.192655504926304 1.51840989038605 0.0333800000000001
0.0334 3.61786412674763 3.7082787275929 9.88375531510056 0.207315862855588 1.52047532561331 0.03339
0.03341 3.81145926173255 3.66233841165055 9.8672159647299 0.202235058087336 1.51460322886184 0.0334000000000001
0.03342 3.77305489578521 3.95262114561834 9.6895932627437 0.220191279628529 1.47227210169892 0.0334100000000001
0.03343 3.80546767464615 3.92086703000498 9.73083589866622 0.220505502762773 1.48151148829903 0.03342
0.03344 3.87457706549382 4.03096660691605 9.79084685255213 0.225367536641123 1.48192569363625 0.0334300000000001
0.03345 3.74079607950198 4.10763215951159 9.54126187144351 0.214644208544051 1.48514958320166 0.03344
0.03346 3.70324159881129 4.10720340230999 9.79512289798802 0.215268171438152 1.50544260261562 0.03345
0.03347 3.83008034893407 4.13539808605071 9.59858345124196 0.227537848937958 1.45679514357314 0.0334600000000001
0.03348 4.01971310012166 4.12910432627187 9.56443654265424 0.23409940197655 1.49241053539085 0.03347
0.03349 3.90516984641867 4.03552158004199 9.79992971621499 0.221655827133922 1.50698587849903 0.0334800000000001
0.0335 3.97262386390758 3.94131942848575 9.5935275128343 0.21861338491887 1.48168745165052 0.03349
0.03351 4.06854474616603 3.88935768733594 9.63968119620705 0.220960328855275 1.48183647659044 0.0335
0.03352 4.0159049264105 4.06036312428355 9.7179441948784 0.223541177895951 1.47613531275547 0.0335100000000001
0.03353 3.90527803345156 3.99105733725889 9.81339725268239 0.218773843369773 1.48575511381994 0.03352
0.03354 3.82828606497833 3.81597504901292 9.60558163310236 0.217747652433306 1.47741246944614 0.03353
0.03355 3.67344958492196 3.84430635718892 9.79089595025593 0.208685332912621 1.51029449108581 0.0335400000000001
0.03356 3.67969082299739 3.98900349047067 9.80853340792425 0.219792092739703 1.49496820812695 0.03355
0.03357 3.55204235123348 3.83601509177332 9.7232112917226 0.20131011123674 1.50446239425347 0.0335600000000001
0.03358 3.46004571590954 3.77854562461246 9.86416517052198 0.201542939451654 1.48913235825232 0.03357
0.03359 3.78668521151955 4.04869998633057 9.71359181485362 0.211737467795458 1.51464292276092 0.03358
0.0336 3.77482185811721 4.01789798445516 9.75926258968857 0.22150289841624 1.51462544950054 0.0335900000000001
0.03361 3.66283463882164 3.96124388960565 9.8144205282799 0.208974732604222 1.49357452370272 0.0336
0.03362 3.57704657864667 3.98757549703159 9.78311824201002 0.204935012516244 1.51001244820393 0.03361
0.03363 3.67052462680204 3.91402808907444 9.79585644765064 0.219534469347175 1.48382815662106 0.0336200000000001
0.03364 3.79532642524019 3.8657120637893 9.678663470473 0.215065310358815 1.46142773256275 0.03363
0.03365 3.50323457090042 4.06550914434039 9.7046539568975 0.214226159529156 1.5088477560882 0.0336400000000001
0.03366 3.66031163087255 3.95591574648271 9.89181057186116 0.206473243922716 1.53087198601483 0.03365
0.03367 3.80553198419663 3.97033383347577 9.89451504956774 0.218394078763898 1.50516564864276 0.03366
0.03368 3.61312170907602 3.93390643552095 9.82567710459266 0.209479997720015 1.50086459419928 0.0336700000000001
0.03369 3.63684966022768 3.94660598615144 9.80500693494044 0.210696796590386 1.50566967005536 0.03368
0.0337 3.73769428279128 3.83789358933858 9.9524327516608 0.210200341036458 1.53168362393697 0.03369
0.03371 3.5998025934533 3.82651274633634 9.89117153995376 0.204098920860083 1.50144023568157 0.0337000000000001
0.03372 3.94107776237456 4.03332656271232 9.79174325861652 0.227384289546553 1.49598277330926 0.03371
0.03373 4.02220580227874 4.03759820471352 9.89415681431697 0.225911095752992 1.50609310691786 0.0337200000000001
0.03374 3.68056032799478 3.98145271534638 9.78579542501763 0.208786273621314 1.5060569427955 0.03373
0.03375 3.7416244319388 4.01176687062962 9.79778305764901 0.221098839751187 1.49633403012623 0.03374
0.03376 3.68280270624928 3.90071796937847 9.74944652123589 0.206800777838256 1.51339093708874 0.0337500000000001
0.03377 3.81351892513155 4.05286463182492 9.78181350576973 0.221700830478187 1.51387977234198 0.03376
0.03378 3.83202727644434 3.92590637235295 9.85043838301169 0.215480852555738 1.50265310057352 0.0337700000000001
0.03379 3.86204034057114 3.95428668042777 9.83620577044968 0.225256192156942 1.50866696229698 0.0337800000000001
0.0338 3.68553220175496 3.94436379319583 9.88522799647497 0.211615802207276 1.48794682635733 0.03379
0.03381 3.8014494946199 3.98214417219677 9.66364396315349 0.221348512136572 1.4830539254428 0.0338000000000001
0.03382 3.8166193984675 4.09106181605545 9.76352219462259 0.225594259086127 1.49394843897209 0.03381
0.03383 3.64528615560512 3.98952969728318 9.92576558027138 0.223331221253517 1.49003288169362 0.03382
0.03384 3.69475351857318 3.92324967939943 9.74262339301514 0.214270764791998 1.48243285020476 0.0338300000000001
0.03385 3.94586836809838 4.04624470931757 9.86017867598355 0.223876195927135 1.51118584264886 0.03384
0.03386 3.59759092087432 3.9044804595617 9.85170752372772 0.220497044214337 1.49967425344884 0.0338500000000001
0.03387 3.72277672757385 4.03328106777314 9.81437657685341 0.221667285811836 1.49842002493243 0.03386
0.03388 3.75466137243243 4.04045480557766 9.89378444881277 0.221452856924248 1.51755414683147 0.03387
0.03389 3.56222446059381 4.03097390022897 9.82321879748081 0.206414722466198 1.51388333531424 0.0338800000000001
0.0339 3.64160847052354 3.99838504892828 9.87600096180573 0.223290861663234 1.48812513818377 0.03389
0.03391 3.94239439714692 4.05500262899383 9.80502805984864 0.220584133632682 1.49641320942986 0.0339
0.03392 3.757396358467 3.9382647284483 9.78408414194764 0.211527936638683 1.50631762919192 0.0339100000000001
0.03393 3.70171669987196 4.02459119405238 9.87678882929101 0.221492046821876 1.50943005050516 0.03392
0.03394 3.88230367427349 4.19186283255107 9.80614764200743 0.22661665883166 1.50252028604496 0.0339300000000001
0.03395 3.79602319815406 4.29819261478408 9.75889684659285 0.225427520564945 1.52350496623592 0.03394
0.03396 3.76814202538693 4.04015417002071 9.88007207111519 0.213082673266169 1.53738187562431 0.03395
0.03397 3.57181366404699 3.8965509959728 9.96174670138795 0.213829591372128 1.49841809561762 0.0339600000000001
0.03398 3.77200548744757 3.98626390223335 9.8417585525507 0.219108207480265 1.49956960409198 0.03397
0.03399 3.95292809832733 3.73420216772501 9.91763673792612 0.217375340171907 1.53087088856624 0.03398
0.034 3.65649382731208 3.84259710530383 10.0204937668941 0.206122610277933 1.50741112107722 0.0339900000000001
0.03401 3.8524585504091 3.98909758638811 9.96489558483532 0.225065212807794 1.49166945942477 0.034
0.03402 3.90960458635687 4.09732217239041 9.7965142468635 0.225548565010559 1.50144966696454 0.0340100000000001
0.03403 3.81377212154562 4.07515010832181 9.78368678028461 0.2137306641215 1.50367407247585 0.03402
0.03404 3.85513690092244 3.96184158728428 9.92359835766071 0.221687999657185 1.5303868707676 0.03403
0.03405 4.02903663586194 3.95870511742479 9.88434588784352 0.218226524728183 1.50920323350098 0.0340400000000001
0.03406 4.04535273943595 4.16234471124902 9.68178812000798 0.230089379435528 1.50782363851035 0.03405
0.03407 4.12835308196295 4.1350329682052 9.82653565723018 0.232583659425456 1.51395509307601 0.0340600000000001
0.03408 3.94389733513466 4.00413304232301 9.98185308871467 0.224032157591178 1.52128350507411 0.0340700000000001
0.03409 3.89112077288531 4.13906466303155 9.89256297383679 0.223405923972165 1.5146894631957 0.03408
0.0341 3.81622000668944 4.00260245875692 9.85025679717181 0.219970434132939 1.51667694333519 0.0340900000000001
0.03411 3.75283762951972 4.08220849291232 9.88889677988583 0.221432360270124 1.53157685558892 0.0341
0.03412 3.87446939279168 3.89209528909149 9.90976742593585 0.215470209591567 1.52757952806438 0.03411
0.03413 3.80836510917077 4.05957954593547 10.0661649554658 0.22275025373357 1.53707850479378 0.0341200000000001
0.03414 3.68203309463147 4.17914894236518 9.959962621174 0.223105454487527 1.51920701792861 0.03413
0.03415 3.88668688263002 3.87636736604972 10.0146277834212 0.219466771589605 1.52078375963336 0.03414
0.03416 3.68705170771963 3.9753362670758 9.92850315869035 0.213749190670442 1.53616047711271 0.0341500000000001
0.03417 3.67758238123736 3.98200117979218 9.96407784999399 0.2124578305154 1.53283409260746 0.03416
0.03418 3.85188640822696 4.11638616492214 9.87576549475642 0.225725418399919 1.51750389065773 0.0341700000000001
0.03419 3.73811443825376 4.07335421095968 10.1087433119244 0.221604466159633 1.53939312800874 0.03418
0.0342 3.73695137715025 4.0535290187391 9.99440510205548 0.219026012452138 1.53598231748894 0.03419
0.03421 3.77412594655005 3.95996276179833 10.0037179001115 0.211732969198731 1.55153397920174 0.0342000000000001
0.03422 3.82607660940541 4.16295932617977 10.0398260250751 0.22100192027291 1.54254327867486 0.03421
0.03423 3.8113900954808 4.10151203785435 9.99946887833275 0.223441911897319 1.519764818353 0.0342200000000001
0.03424 3.76633766728372 3.96645267735093 10.0037164937471 0.211779391806638 1.51137568227319 0.0342300000000001
0.03425 4.12184497940913 4.26385326567347 9.86159774410061 0.232277274562456 1.51236071082499 0.03424
0.03426 3.87302304057964 3.97071264647319 9.78097725958637 0.217414187384788 1.52869753840267 0.0342500000000001
0.03427 3.95970891534216 3.9435173700036 9.96849361674802 0.223371998147427 1.5265931104038 0.03426
0.03428 3.91912976372212 4.08408279805606 9.89100178224269 0.228768082247436 1.51800544858118 0.03427
0.03429 4.01787528952726 4.04199752799186 9.95927584169726 0.221017941727475 1.54518674742129 0.0342800000000001
0.0343 3.89421049677041 4.20893632398396 9.87655328654981 0.224298843129187 1.5294728202713 0.03429
0.03431 3.94530376213478 4.31143732693051 9.98550263138572 0.230401426510769 1.54794323565288 0.0343000000000001
0.03432 4.14731442817155 4.07816616135609 9.89314084179666 0.230082141136495 1.50865697576495 0.03431
0.03433 4.07352728556926 4.29838050781941 9.74925578593412 0.232408746021935 1.51748368565886 0.03432
0.03434 3.95562073496242 4.2530588507726 10.0314846305652 0.225377214841488 1.5673349340525 0.0343300000000001
0.03435 4.05811545056761 4.02819212344683 9.87965381231447 0.226476046547543 1.52374248074547 0.03434
0.03436 4.0212706194745 4.2471083200508 9.8693808115079 0.229792431236717 1.5197777727706 0.03435
0.03437 3.92951531144368 4.18739141286438 9.86935249195164 0.231314611038715 1.51132499004223 0.0343600000000001
0.03438 3.98605151638515 4.23034986641557 9.99845182390865 0.227238688360236 1.54850072907495 0.03437
0.03439 3.79099912814385 3.96090315836339 10.0613629822724 0.218616685216929 1.5348032500381 0.0343800000000001
0.0344 3.88227615026989 3.9299940528451 10.0185396853466 0.215879941184001 1.53563485989381 0.03439
0.03441 3.74142946775218 4.17234603223623 10.0505366740379 0.223709372465824 1.51977200716061 0.0344
0.03442 3.83306367168408 4.17705847914975 9.89349660720788 0.222925328662069 1.52987294918372 0.0344100000000001
0.03443 3.80455381740623 4.03057933584632 9.98843156207124 0.216859629242826 1.54908600182759 0.03442
0.03444 3.79473567781994 4.15134645960204 10.0128660180527 0.226736542920766 1.52191964367078 0.03443
0.03445 3.82540304418913 4.09795886567577 10.0372247111232 0.218810179265624 1.54932069787167 0.0344400000000001
0.03446 3.79043140360095 3.93939917074978 10.0989339642525 0.210747337105923 1.55057654216223 0.03445
0.03447 3.66372908656446 3.86946443584952 10.0764013355159 0.213617831555289 1.51427830616234 0.0344600000000001
0.03448 3.77982774034098 4.00600107461522 10.0597777688524 0.214019894382504 1.55367797327193 0.03447
0.03449 3.81794681802168 4.15597176591633 10.1385433192808 0.224933956271564 1.55431985694878 0.03448
0.0345 3.96998245649515 4.09348702874977 10.0849427278928 0.220845533960375 1.53665835312183 0.0344900000000001
0.03451 3.7234381625318 3.8881164415093 10.0877200956806 0.216770564843265 1.54841957627821 0.0345
0.03452 3.76276191725837 4.02198131049473 10.0261381053769 0.219817726406438 1.53219363608839 0.0345100000000001
0.03453 3.87271884528798 4.12778126379495 9.95503800722815 0.22504369155483 1.54422128652409 0.0345200000000001
0.03454 3.79978274027346 4.03422451760644 10.1269064098985 0.220033525559856 1.55097091088188 0.03453
0.03455 3.83368302881506 3.95472780787256 10.2060560916869 0.219331281714299 1.52180389305079 0.0345400000000001
0.03456 3.72256183568136 4.13820714882886 9.94965052224834 0.22073798531302 1.53754816323052 0.03455
0.03457 4.07899590563316 4.2128182569608 9.96157258480782 0.229411717020938 1.56889708313006 0.03456
0.03458 4.05700245076766 4.04432363319589 10.0603730040317 0.229624950879101 1.5385416923709 0.0345700000000001
0.03459 4.1313990518959 4.09880119082617 9.94739011475048 0.235353168592786 1.50167631715509 0.03458
0.0346 4.05169995191952 4.17076246643035 9.94085346598701 0.233111492275957 1.51766514169902 0.0345900000000001
0.03461 4.19385360741334 4.16216787634235 9.83216619644572 0.241317055383368 1.52288218236428 0.0346000000000001
0.03462 4.25440512205069 4.3582549233304 9.92787719384453 0.24324944683303 1.54942262159269 0.03461
0.03463 4.12006748878229 4.25194945052957 9.94406440019647 0.233422939232276 1.51719094102482 0.0346200000000001
0.03464 4.07728442774569 4.29486388755785 9.85216720032848 0.229258074211824 1.50622480644931 0.03463
0.03465 4.18531062016018 4.31864425686586 9.88745939720108 0.239887820347625 1.51990911181328 0.03464
0.03466 4.01994414420289 4.38419511087549 9.93271537461891 0.239250751807196 1.5269022392088 0.0346500000000001
0.03467 4.050218452212 4.37805903393419 9.97506341436399 0.231815118395384 1.5427550251882 0.03466
0.03468 3.90305385659313 4.29476871235724 9.95805324287615 0.228982502636415 1.52940924749354 0.0346700000000001
0.03469 3.97355601852271 4.253408918805 9.92429408299102 0.233195458052031 1.54172501946465 0.03468
0.0347 3.91092187693032 4.23713649577136 10.0543545183577 0.232172144597685 1.53723952114319 0.03469
0.03471 3.99252199049025 4.06334879622262 10.0252682761948 0.221315362274286 1.53225663709405 0.0347000000000001
0.03472 3.7519523154161 4.23154818565989 10.0265050263474 0.222595291184713 1.56700763794309 0.03471
0.03473 4.0124415905048 3.89202315188402 10.0721695403259 0.219147028368941 1.52978212265869 0.03472
0.03474 3.64425526069563 4.11683853075947 10.1198904048775 0.218322719590623 1.55174590433485 0.0347300000000001
0.03475 3.81435478536409 4.22481703113565 10.1124738115728 0.231194461721302 1.5543202235063 0.03474
0.03476 4.04892115979532 4.1587487316692 9.99511120599807 0.232973055540511 1.54761649625529 0.0347500000000001
0.03477 3.97704814412002 4.10740747566074 10.0179353456556 0.227981866365784 1.55362249269863 0.03476
0.03478 3.86144019843692 3.99799747019317 10.1919381353356 0.217197136354223 1.56490077354795 0.03477
0.03479 3.97169157410892 4.12145882107301 10.1041141476425 0.230765273767202 1.53321682179851 0.0347800000000001
0.0348 3.9904995519682 4.10906717338779 10.0579881553276 0.224723295800796 1.54294494781814 0.03479
0.03481 3.80174571382599 3.89974193929845 10.1646291382045 0.21763741540802 1.57063939613752 0.0348
0.03482 3.76585042969447 4.0530145110537 10.2084547839891 0.218236753131368 1.54006108458991 0.0348100000000001
0.03483 3.75388394958316 4.18755642888558 10.1589998686856 0.222880714403474 1.5573200633941 0.03482
0.03484 3.88335805391517 4.13631187300232 10.0507865784803 0.222799822197031 1.54533378298499 0.0348300000000001
0.03485 3.91270893180261 4.06783123059584 10.0738991935483 0.223572539246407 1.54158638470766 0.03484
0.03486 3.79360807557355 4.28279919477105 10.1090493880302 0.224975338385612 1.55705657152821 0.03485
0.03487 3.98588504831607 4.16334286051298 10.0419934560249 0.229526275767152 1.54412386800519 0.0348600000000001
0.03488 4.14280993120993 4.30545038048637 10.1205608479084 0.235962229561589 1.54186824142033 0.03487
0.03489 4.31636722272298 4.3346521565492 10.0089661565549 0.243014344008134 1.5388344552942 0.03488
0.0349 4.16535167511634 4.52337050765765 9.84178895903923 0.245748661984714 1.53633676017204 0.0348900000000001
0.03491 4.22329319577593 4.47135534584043 9.92430767095039 0.238639039903916 1.54596885544147 0.0349
0.03492 4.21828473315172 4.40711407974239 9.91077884353392 0.240466561934803 1.54888368772611 0.0349100000000001
0.03493 4.08806527561781 4.44757203443689 9.98390104230752 0.239345832336442 1.53652620214406 0.03492
0.03494 4.20935325853523 4.55857595961353 9.89633694133172 0.250699639329866 1.53644429198901 0.03493
0.03495 4.076334329637 4.4052471890846 10.0326985524096 0.236595891718949 1.55822773537314 0.0349400000000001
0.03496 4.20239600024063 4.26992714899413 10.1716084979317 0.232111197663694 1.55307408202176 0.03495
0.03497 4.09295122267409 4.26849323115696 10.0930510383528 0.238225895387915 1.5269441420528 0.0349600000000001
0.03498 4.0829403749114 4.38902320616414 9.98119987516033 0.239543141567844 1.53965246728852 0.03497
0.03499 4.00706299329068 4.38941560992542 10.0242663461492 0.230661742309597 1.53487845556073 0.03498
0.035 3.85049442194838 4.30594031492599 10.0297473142298 0.233015782549341 1.53924214392051 0.0349900000000001
0.03501 4.02012926739563 4.34046507143733 10.0819360735322 0.23810324114932 1.57028465264908 0.035
0.03502 3.89586113340603 4.30122913702185 10.1688624029314 0.231754453719208 1.56944203509391 0.03501
0.03503 3.90482703125581 3.95849028772746 10.1712876464561 0.215177838047372 1.55145252995866 0.0350200000000001
0.03504 3.96957489128866 4.25863080422557 10.2177032181199 0.237159192513204 1.56528324340158 0.03503
0.03505 3.76789125435532 4.18435655243379 10.2212896876384 0.232849813579129 1.56856364895101 0.0350400000000001
0.03506 3.78994983291091 3.95878008822145 10.2739351027113 0.212898304935918 1.56986792124349 0.03505
0.03507 3.62800875983128 4.01653643253351 10.2635060518485 0.209868164073234 1.55010945743772 0.03506
0.03508 3.84762431196205 4.16042128351283 10.363507529036 0.234956436857703 1.57123223208768 0.0350700000000001
0.03509 3.91653171880001 4.13774759025267 10.188439257488 0.225719475957317 1.54737893006605 0.03508
0.0351 3.84479821893649 4.2936014724403 10.1214510115122 0.227004207510277 1.56055746766335 0.03509
0.03511 3.81761961261487 4.03895727834941 10.1495051156619 0.218090848443843 1.57457213993841 0.0351000000000001
0.03512 3.95835177958197 4.20497553881465 10.3292136271785 0.231330135593718 1.56027291213789 0.03511
0.03513 3.74846800016561 4.15899135222539 10.1620827638952 0.222681100873114 1.5356350328176 0.0351200000000001
0.03514 3.86044532084442 4.0800537056798 10.1708899497192 0.221206057086309 1.58462731191066 0.03513
0.03515 3.86774903801519 4.12372209741962 10.2901790872307 0.223880526078129 1.57622958978877 0.03514
0.03516 3.99884493276413 4.14913762833069 10.1617194175293 0.223346003170592 1.57261995174729 0.0351500000000001
0.03517 4.11941957553624 4.29601757918924 10.1215307357119 0.236253593457628 1.55944978206196 0.03516
0.03518 4.14475684296194 4.42555266321865 10.1213078173158 0.244483053098752 1.55090920676442 0.03517
0.03519 4.1398401706249 4.47041894487437 10.142464827561 0.244040946981358 1.55318103383163 0.0351800000000001
0.0352 4.11516877166478 4.36994379823326 10.0735475921904 0.235282970556135 1.54968718356975 0.03519
0.03521 4.20210089085939 4.34434055974176 10.0274303314738 0.238712635510815 1.55448684112529 0.0352000000000001
0.03522 4.08542389371938 4.47679683846461 10.0497633212458 0.240478094708069 1.56605756089413 0.03521
0.03523 4.16618672013268 4.38880917043863 10.0982787692783 0.241889652595188 1.55357072949515 0.03522
0.03524 4.10537587634971 4.32574961930916 10.0334169084659 0.240768937598593 1.55729386543519 0.0352300000000001
0.03525 4.22037593186856 4.49137395679352 9.99026136530794 0.246426572178316 1.5329425254094 0.03524
0.03526 4.14387574967182 4.29667195212392 10.1006253975093 0.241385865776726 1.5463804210936 0.0352500000000001
0.03527 4.13390068509073 4.52957201697124 10.0817025424621 0.240806489343147 1.55298135293797 0.0352600000000001
0.03528 4.17031127566832 4.59161934464362 10.0466426700442 0.253972277118951 1.56880076314976 0.03527
0.03529 4.14874088310131 4.64025490847485 10.091310389009 0.243352946017136 1.58051658787472 0.0352800000000001
0.0353 4.18920834865013 4.40240990729457 10.0938245933575 0.237662373230487 1.54496382063097 0.03529
0.03531 4.05982934527714 4.40636921532304 10.1305555459118 0.236328240619693 1.56988160704353 0.0353
0.03532 4.04424516602426 4.37405155523838 10.0742567799858 0.232703938700467 1.57870418707718 0.0353100000000001
0.03533 4.19766356286005 4.46422980439897 10.2202536103401 0.246108461839437 1.56150490413694 0.03532
0.03534 4.19663750460888 4.3784988371858 10.094513419799 0.241959778863767 1.54549601670377 0.0353300000000001
0.03535 4.07348503988297 4.52707863113093 10.0885534845895 0.244077067835265 1.56717479138041 0.0353400000000001
0.03536 4.27153371563147 4.47331807676877 10.0602701871682 0.240440069404917 1.58343710595532 0.03535
0.03537 4.19664156190928 4.29600339731941 10.1998446229482 0.23964397237866 1.56355984227628 0.0353600000000001
0.03538 4.05714678357359 4.46503628255142 10.1466362116888 0.236558798589046 1.57350594845404 0.03537
0.03539 4.19665407513725 4.1923301584091 10.2921469369872 0.237970594355385 1.57167565700916 0.03538
0.0354 3.92286060626293 4.22899921126951 10.2735048938099 0.2279802277723 1.58466213501887 0.0353900000000001
0.03541 4.04843403269164 4.21996371415836 10.2241935579829 0.23157754882541 1.56715356104175 0.0354
0.03542 4.10284535271642 4.27265219432989 10.1713124870371 0.237983827519322 1.55526095772428 0.0354100000000001
0.03543 4.13461942460967 4.2844537707187 10.164990484263 0.23396450182574 1.57478688936433 0.03542
0.03544 4.12840853867632 4.30204163826659 10.2744399448726 0.236518914005806 1.5767572542742 0.03543
0.03545 4.02690713121822 4.23821583391001 10.2506552755226 0.235937338871728 1.56040558732489 0.0354400000000001
0.03546 3.95557672610661 4.3067918374255 10.3566849487496 0.233911731526448 1.57556017944114 0.03545
0.03547 3.83791514560665 4.16344428145607 10.2908792212139 0.231963073329237 1.56686879987602 0.03546
0.03548 3.96418296544646 4.25473731294428 10.2734915746744 0.234965630548697 1.56865871414654 0.0354700000000001
0.03549 4.04416486441077 4.23091005000726 10.2592183920253 0.230937669015427 1.57131739221777 0.03548
0.0355 4.11577539471442 4.37432129393435 10.1482466752511 0.243163769005697 1.57229208591767 0.0354900000000001
0.03551 4.18422183240246 4.25078637945237 10.2483005847468 0.239857450022872 1.5782303490082 0.0355
0.03552 4.0680993911099 4.30202720070008 10.2208056934878 0.236990159732295 1.58203107738742 0.03551
0.03553 4.12462788408462 4.30618377774654 10.3164575077419 0.234584911511695 1.56693355105781 0.0355200000000001
0.03554 3.87961172554243 4.38564672294054 10.3135922373354 0.233729771573895 1.58805888705428 0.03553
0.03555 4.10837077923339 4.52960738602268 10.1377773135727 0.239349311076963 1.59125782065886 0.03554
0.03556 4.20932481461288 4.41907288253325 10.1596092910062 0.237458271105691 1.57692293355988 0.0355500000000001
0.03557 3.86589308547618 4.22678592375128 10.2850115044904 0.231245678395419 1.56564698754608 0.03556
0.03558 4.16343122535543 4.45698564146289 10.1830341047444 0.238146185906183 1.60260009998133 0.0355700000000001
0.03559 4.26000501367285 4.21071266291147 10.2315809384231 0.240944493129445 1.55324789287766 0.03558
0.0356 4.0250193841772 4.37383490714385 10.1500902976436 0.236286069555472 1.56647470343913 0.03559
0.03561 4.0718680793896 4.36280399723148 10.1967890741446 0.233215525838419 1.5881148412649 0.0356000000000001
0.03562 4.19969659380163 4.42372376749233 10.242284288137 0.237935024374349 1.59273565558997 0.03561
0.03563 4.28569058067559 4.5956160420581 10.1582860569233 0.249496689090013 1.56060303157864 0.0356200000000001
0.03564 4.25141688132072 4.57109230189183 10.2031764341586 0.2446995324911 1.57164872050996 0.0356300000000001
0.03565 4.13013385886905 4.60007489689207 10.1491433562163 0.244788805375131 1.59145877450003 0.03564
0.03566 4.1761011441978 4.47765584543192 10.2018708256497 0.242933124667019 1.56572156314482 0.0356500000000001
0.03567 4.23718051832104 4.36995598640979 10.2006989215369 0.244228683365413 1.55524668403203 0.03566
0.03568 4.09049713428834 4.52565318437442 10.2660757569389 0.240976678895848 1.57134017191563 0.03567
0.03569 4.13776407739165 4.67120811855668 10.1557128575616 0.255470801657428 1.56169709489884 0.0356800000000001
0.0357 4.26457763288522 4.29738423502173 10.2558123207638 0.243580174777301 1.57971616896742 0.03569
0.03571 4.19094832717841 4.34905430712877 10.2516763805439 0.231233548060192 1.58215915148694 0.0357000000000001
0.03572 3.98491547703059 4.29146071091856 10.2784662920495 0.23554085922188 1.57543463224931 0.0357100000000001
0.03573 4.23001519223434 4.15456121963233 10.3443825449346 0.239651431009859 1.57232389876515 0.03572
0.03574 4.09438305400083 4.47400155430037 10.2200155785972 0.235714287195581 1.57597100538918 0.0357300000000001
0.03575 3.98860059940497 4.33051935430257 10.3588839132081 0.232571397100513 1.60209099729336 0.03574
0.03576 4.11115506456328 4.29547330685927 10.3056124952323 0.236941301651315 1.58962203566171 0.03575
0.03577 4.23909075120723 4.32239682892145 10.3904681403716 0.238891244232307 1.59629947226146 0.0357600000000001
0.03578 4.18196260409501 4.34217486196865 10.3863787643365 0.240894310174941 1.57936666483425 0.03577
0.03579 4.03900718466374 4.34254426249763 10.3066589723901 0.228765459789731 1.59155565549723 0.0357800000000001
0.0358 4.15212981457579 4.26496359296946 10.3368052366758 0.235254761584775 1.60101990945599 0.0357900000000001
0.03581 4.11035227743825 4.24675472915213 10.3646339783643 0.234275706098979 1.57218592554815 0.0358
0.03582 4.19527516154421 4.15339140539575 10.3687331163054 0.235065205809594 1.57454641494074 0.0358100000000001
0.03583 4.30818446469186 4.5344161136262 10.2825353522814 0.252165269318213 1.58860892705788 0.03582
0.03584 4.38462236853912 4.46548753898435 10.1911881272638 0.249651905560055 1.58721626568417 0.03583
0.03585 4.28706786319448 4.60708337223879 10.3282899094352 0.252774668512904 1.59225559094664 0.0358400000000001
0.03586 4.21255791289992 4.4413188405279 10.3948658008424 0.249273767318904 1.59631948705013 0.03585
0.03587 4.34707733397976 4.41967196761461 10.2412913673641 0.248837730717441 1.56952929751291 0.0358600000000001
0.03588 4.10955703826783 4.40569096497221 10.4099275990275 0.237926189955986 1.5958163240583 0.03587
0.03589 4.15406780982725 4.40512785899504 10.2254244001235 0.240642442066404 1.58618696885216 0.03588
0.0359 4.33032362447033 4.53743736350522 10.1961138471463 0.246698452840719 1.59151864435771 0.0358900000000001
0.03591 4.26707648486337 4.33587370538468 10.3145514668114 0.248366522180026 1.58994046807256 0.0359
0.03592 4.34148641569388 4.51196031700582 10.2664479681255 0.253409290042823 1.60335860129475 0.03591
0.03593 4.29150016876126 4.48586132497091 10.4112564892591 0.247386054041459 1.60648003562669 0.0359200000000001
0.03594 4.23088657710075 4.70734057573851 10.2985916698822 0.251747779585534 1.58766854385618 0.03593
0.03595 4.03879536991163 4.49761781583022 10.1734821584475 0.234690705259996 1.59250908012244 0.0359400000000001
0.03596 4.28661008185037 4.38602650150702 10.3302713486483 0.246304963292675 1.5940305466131 0.03595
0.03597 4.33283050167627 4.58624174261642 10.3693036176514 0.252854895191986 1.59168407325466 0.03596
0.03598 4.56702329635868 4.54847691433748 10.2730187158612 0.252143063224586 1.60585714513019 0.0359700000000001
0.03599 4.42533849880917 4.5397082826224 10.232379478657 0.251198771184591 1.58321593510707 0.03598
0.036 4.25991591755934 4.54831034467066 10.2398564282789 0.252250179750509 1.57354392639163 0.0359900000000001
0.03601 4.21213846968778 4.55684976546179 10.1169670574926 0.24622600109091 1.58877737675034 0.0360000000000001
0.03602 4.09095267293573 4.63690663333409 10.2787047294133 0.245469156165182 1.59190598356279 0.03601
0.03603 4.35899735006546 4.56823821838482 10.202120744989 0.244329308671714 1.58642890162165 0.0360200000000001
0.03604 4.53016908223084 4.54404424231315 10.2937410444531 0.263797582889933 1.56395159634987 0.03603
0.03605 4.26263564173313 4.51502475235076 10.2609577447942 0.247129696782668 1.58855476067885 0.03604
0.03606 4.41610932285779 4.61187974283413 10.2512253089422 0.250637470132123 1.59478391248269 0.0360500000000001
0.03607 4.47025189805336 4.76323326501712 10.1566334464737 0.258092023546794 1.56953684571743 0.03606
0.03608 4.48927381023468 4.68145772438894 10.117879945342 0.25596470069767 1.58656218420359 0.0360700000000001
0.03609 4.22521273060397 4.60092191270206 10.293145333004 0.250139298052655 1.59951240292758 0.0360800000000001
0.0361 4.31498742330117 4.597778937787 10.2966959889421 0.2493005987212 1.58454842147079 0.03609
0.03611 4.08025539293659 4.60896936183137 10.3255476575263 0.244788275436974 1.58952843566898 0.0361000000000001
0.03612 4.36368344178245 4.53678393028003 10.2421989962034 0.24974177608837 1.57832641384345 0.03611
0.03613 4.12366811045986 4.61274790905064 10.4183218965268 0.246885409638557 1.60134740609317 0.03612
0.03614 4.28489422567103 4.30459619557243 10.4147344163255 0.241551246291302 1.59286118347163 0.0361300000000001
0.03615 4.13159452400993 4.45459321263471 10.3849962154527 0.237278700891765 1.58056614398483 0.03614
0.03616 4.19849786437275 4.73590589775822 10.3513368126986 0.258201377803679 1.5866339826118 0.0361500000000001
0.03617 4.23923988009295 4.51201673133931 10.4175643257908 0.244993991415467 1.62899182683334 0.0361600000000001
0.03618 4.14668614494884 4.46351755041343 10.3770069667375 0.244581451610302 1.59592224400423 0.03617
0.03619 4.1296816105961 4.52281162946572 10.3894986748545 0.249445851384766 1.59952785387941 0.0361800000000001
0.0362 4.02682855237168 4.52984105331428 10.4847024420224 0.242170089795261 1.61448420873143 0.03619
0.03621 4.16465223610035 4.65417313282492 10.3738911486078 0.247369112656247 1.59675376104939 0.0362
0.03622 4.26295409679725 4.65361965037383 10.3524419913204 0.24837218987356 1.62830892734089 0.0362100000000001
0.03623 4.22346128812208 4.37351025237463 10.3435352106211 0.239154301878333 1.60591775244389 0.03622
0.03624 4.25980130702664 4.67711993568155 10.3303329481122 0.256659544381723 1.58900754602091 0.0362300000000001
0.03625 4.35387936207424 4.67772355760856 10.2433084431212 0.252233468305297 1.59086373636857 0.03624
0.03626 4.23570556700599 4.6796319982389 10.3663588702294 0.251344850636556 1.60803889966009 0.03625
0.03627 4.32380718283309 4.61573070455325 10.2688514805627 0.247512293454437 1.59318043587753 0.0362600000000001
0.03628 4.39555866281428 4.78703932259958 10.2458751387365 0.255310561454423 1.60132158151257 0.03627
0.03629 4.32581003992196 4.56957792789975 10.2636395322527 0.244276994178584 1.60227284622293 0.03628
0.0363 4.39488821832505 4.50026616976515 10.2062622516839 0.248122242211594 1.57715235731342 0.0362900000000001
0.03631 4.40782372766472 4.68768434012615 10.3060541134385 0.257427068274796 1.59933106296242 0.0363
0.03632 4.58673663363618 4.70568567218549 10.1734126800826 0.260512430074803 1.59038353007669 0.0363100000000001
0.03633 4.39962110175628 4.7042846790241 10.3122584819403 0.259506052619445 1.58748999463904 0.03632
0.03634 4.38653745145011 4.76730823064838 10.3006700804461 0.248130369685514 1.61066493798535 0.03633
0.03635 4.44184985980055 4.76895801782185 10.2479340125265 0.260645428823844 1.59643379813091 0.0363400000000001
0.03636 4.56893155147601 4.845452764799 10.2431854975031 0.261191650796405 1.60834866927013 0.03635
0.03637 4.57258576187164 4.80380120969738 10.2667131918585 0.263718003395559 1.60260856642795 0.03636
0.03638 4.22029915413527 4.68003284045526 10.3459733366124 0.256016337941263 1.58596821887182 0.0363700000000001
0.03639 4.18900328228986 4.66009848092362 10.3305964321034 0.246215583621466 1.62094764941107 0.03638
0.0364 4.31330977382872 4.63853527955912 10.3770817315676 0.254308339636049 1.60775280999667 0.0363900000000001
0.03641 4.03661014137287 4.31415404928445 10.4230202680846 0.237648154516264 1.59542023717179 0.0364
0.03642 4.1733296464991 4.52789339773674 10.4748203594537 0.239557064962944 1.62140952564174 0.03641
0.03643 4.17893926885836 4.5884589014128 10.5160868738514 0.242782492542794 1.61986458733878 0.0364200000000001
0.03644 4.25622942741082 4.41869530874057 10.5024838056608 0.241198826577436 1.61911009231164 0.03643
0.03645 4.25259124247214 4.44256591221996 10.4616611692518 0.246085938636238 1.6014337286285 0.0364400000000001
0.03646 4.02284668353588 4.64079653716041 10.4333274001339 0.240360292103606 1.6158127511326 0.0364500000000001
0.03647 4.22858840998578 4.61652487461706 10.4581825681272 0.245949914220039 1.62830907519298 0.03646
0.03648 4.1430869532117 4.54114662928745 10.4699097241636 0.242757198934877 1.62110905170611 0.0364700000000001
0.03649 4.09821799817443 4.31577524611285 10.4211155349171 0.230243006395275 1.61482193036881 0.03648
0.0365 4.23072907577684 4.40872495753974 10.4659743450571 0.245380264892939 1.62094975653165 0.03649
0.03651 4.36922410961487 4.77026135454172 10.4302731792438 0.259522852779137 1.61165701668748 0.0365000000000001
0.03652 4.3687318125456 4.65988873794913 10.415203928071 0.249813904849851 1.61191165093848 0.03651
0.03653 4.16366700639008 4.588854461578 10.5189861485152 0.239238481232889 1.63559391628296 0.0365200000000001
0.03654 4.39405092116343 4.7382201271022 10.2484007237228 0.25946789561578 1.60019400334254 0.03653
0.03655 4.54093986995335 4.83202801663868 10.2870321777973 0.26194383861451 1.5962661441847 0.03654
0.03656 4.40258706521357 4.57382434866144 10.1890535602459 0.247428505492558 1.59776700882981 0.0365500000000001
0.03657 4.36382174578353 4.69247379948843 10.4616283477864 0.258375927258592 1.62040333117852 0.03656
0.03658 4.52861317399038 4.6187219647166 10.3784263870761 0.259698723528601 1.57289640334444 0.03657
0.03659 4.58763238736267 4.74910418097462 10.3684492665358 0.259310351518267 1.61520060587467 0.0365800000000001
0.0366 4.57494326899477 4.79792976167822 10.3169179448319 0.268508152131238 1.58907588923646 0.03659
0.03661 4.58781387371418 4.82019164632922 10.2870221929408 0.258225449812394 1.62587435107807 0.0366000000000001
0.03662 4.74035746391753 4.80648960839258 10.3076756444768 0.26893500004439 1.60973424793145 0.03661
0.03663 4.72993662628431 4.8110590898592 10.4455824664823 0.268964850247124 1.59757454741504 0.03662
0.03664 4.62089457413819 4.84451842014568 10.3879002989207 0.262566616456245 1.60372324591292 0.0366300000000001
0.03665 4.35068195203405 4.65833249746895 10.3633261713163 0.249641000974913 1.62124206487727 0.03664
0.03666 4.50616729505505 4.63435257787604 10.4376884932988 0.254799780508657 1.61778963970431 0.03665
0.03667 4.661252943447 4.46841287524009 10.4444272678097 0.26498303809057 1.60636984190083 0.0366600000000001
0.03668 4.51439913213081 4.64231327286564 10.4656874187041 0.255904372338775 1.6169975719015 0.03667
0.03669 4.30771416387139 4.7012524710364 10.5036696680557 0.246013887829291 1.62849352685187 0.0366800000000001
0.0367 4.40992222702156 4.70902396706125 10.4929973579225 0.254920760715136 1.62552708373315 0.03669
0.03671 4.36473624826391 4.4367980982084 10.6032689683134 0.247122003358912 1.6406022100826 0.0367
0.03672 4.19530221371661 4.69289067488799 10.5672033058992 0.250578180855424 1.62692039856789 0.0367100000000001
0.03673 4.2308431441921 4.48022267644588 10.5559824582908 0.241833454785341 1.62964129102327 0.03672
0.03674 4.26149148662807 4.5466928052143 10.5531912006069 0.251548442947962 1.62118703707932 0.0367300000000001
0.03675 4.2528774052872 4.77929631038056 10.4861562639985 0.255906542333461 1.63216891901339 0.0367400000000001
0.03676 4.33006517854266 4.61791594074795 10.482515708248 0.248585876712105 1.62165136327594 0.03675
0.03677 4.3548193637051 4.51469922506589 10.5168310470131 0.253051084144 1.61150153985968 0.0367600000000001
0.03678 4.41465176698491 4.55829829488064 10.4635034503761 0.250457424530067 1.63527923229218 0.03677
0.03679 4.39151158606629 4.50362084048312 10.5512647281348 0.248499103750328 1.60814821349888 0.03678
0.0368 4.18448096475117 4.47083553683179 10.4987945267974 0.237927149802967 1.61060497094375 0.0367900000000001
0.03681 4.69686052919882 4.70963475131706 10.3685870825552 0.266784043069205 1.62126098471066 0.0368
0.03682 4.64918844495957 4.79451598245091 10.4086478314587 0.268349875776068 1.60385770541981 0.03681
0.03683 4.61510416525635 4.67901120711805 10.5360587319002 0.257643368832976 1.63180876728043 0.0368200000000001
0.03684 4.35092174526405 4.46207516992992 10.4691315397085 0.248662069192809 1.61571926870526 0.03683
0.03685 4.41575790641946 4.69891483935349 10.4619596375295 0.25298506403568 1.62322016307959 0.0368400000000001
0.03686 4.31928154075753 4.62472065667402 10.6293523934114 0.254713833220827 1.61877135698369 0.03685
0.03687 4.14281338153772 4.55375377492221 10.5836398148838 0.240118153779175 1.6173366856721 0.03686
0.03688 4.27440788848833 4.56255082750799 10.5422252315676 0.249233939114577 1.63402288664329 0.0368700000000001
0.03689 4.35531693408962 4.66943910448985 10.5766881931016 0.250411366702387 1.63940275802174 0.03688
0.0369 4.33234496087309 4.70474676602939 10.5104299055178 0.255256061456759 1.61507412481918 0.0368900000000001
0.03691 4.47670248684854 4.86490393683354 10.4392506068519 0.258410949405744 1.6086287163685 0.0369000000000001
0.03692 4.5753833099186 4.81443844731913 10.4042390618808 0.261048815540005 1.61700704542177 0.03691
0.03693 4.64384209390112 4.75602736999412 10.4580158680092 0.267389444684707 1.63629517560446 0.0369200000000001
0.03694 4.58939026456293 4.77395645490643 10.4074613953472 0.266633922714489 1.60200856425589 0.03693
0.03695 4.68556410600764 4.78909570082174 10.4587505978798 0.263740423530406 1.61567896480442 0.03694
0.03696 4.47191868739941 4.73972049326998 10.4168091638009 0.261834117868314 1.57883661720941 0.0369500000000001
0.03697 4.64592410631142 4.90853204733646 10.4079639304121 0.265438363600812 1.61888232779088 0.03696
0.03698 4.48038847110232 4.84007269774656 10.4919230704568 0.262931637866524 1.63439661953633 0.0369700000000001
0.03699 4.44231272940006 4.95140683885463 10.4463646664645 0.265650017500456 1.60628688833757 0.03698
0.037 4.40572958625367 4.74172046997917 10.4074992415824 0.256173474757233 1.62778515529817 0.03699
0.03701 4.4027625183197 4.70392554538954 10.472350767939 0.256650985363091 1.62639052457421 0.0370000000000001
0.03702 4.58726662009304 4.77947305983494 10.5187898007007 0.264193595085449 1.62304553822612 0.03701
0.03703 4.24708103847936 4.80428965741784 10.4109739789552 0.252642821984022 1.62600239180065 0.03702
0.03704 4.42698274850301 4.71883060716713 10.397093481377 0.254675382380598 1.63370716795684 0.0370300000000001
0.03705 4.45497432886643 4.65360227754988 10.4878433801306 0.255440173066645 1.62384652036813 0.03704
0.03706 4.29780409767768 4.88859105662738 10.5168855057618 0.261006350587627 1.61778319047857 0.0370500000000001
0.03707 4.62118945276451 4.74114643846362 10.5208689351997 0.261934119633419 1.63143177701613 0.03706
0.03708 4.56601613969526 4.94162541333842 10.4016513452312 0.265226969517266 1.63652281228182 0.03707
0.03709 4.50097102888679 4.83959101271775 10.5782711124162 0.264888820561709 1.63278222093428 0.0370800000000001
0.0371 4.24875864549841 4.66435823454448 10.5693624720004 0.246290386072472 1.6434701238777 0.03709
0.03711 4.38271768328369 4.79638421312893 10.6225643496404 0.260322515140095 1.64239402845612 0.0371
0.03712 4.42060450173421 4.76743392762656 10.6913414324387 0.266224544655556 1.60432011277713 0.0371100000000001
0.03713 4.29320458546114 4.58606224210935 10.5936163518969 0.250133603135922 1.60942637041537 0.03712
0.03714 4.34079821612841 4.78844516607472 10.5341981064781 0.252625256064868 1.64758089431217 0.0371300000000001
0.03715 4.59662494780059 4.62500153480413 10.5268791497223 0.256052560777293 1.62090707622105 0.03714
0.03716 4.31772250167476 4.73926361996312 10.5249929477893 0.254951883493656 1.62852631469864 0.03715
0.03717 4.28807618464557 4.8204969419698 10.550521025328 0.254852256729576 1.65090445176526 0.0371600000000001
0.03718 4.42038435851034 4.67961166156542 10.5649102667035 0.25212118226389 1.63328427041596 0.03717
0.03719 4.42886657589104 4.84498663131507 10.5757937454382 0.262551686347679 1.62447392354614 0.0371800000000001
0.0372 4.38153808767551 4.88076359486105 10.4852736237832 0.263556131642146 1.61827198280931 0.0371900000000001
0.03721 4.42770798047 4.84480546796697 10.548530737781 0.256356086100844 1.64049713597105 0.0372
0.03722 4.68058753260121 4.87901759003794 10.3958390448521 0.270336613265249 1.62672061638135 0.0372100000000001
0.03723 4.66907615129748 4.76442090530952 10.4306508324437 0.263069536237243 1.60685397872609 0.03722
0.03724 4.49726690665285 4.66995113986084 10.5129723749015 0.252536025819382 1.62870939395567 0.03723
0.03725 4.53287284013081 4.87863593165849 10.3973890445992 0.257786467398436 1.63911721677621 0.0372400000000001
0.03726 4.79706287008462 4.93431072893858 10.4906350423351 0.271359868685968 1.63771878881576 0.03725
0.03727 4.74238476535298 4.97738672218358 10.4949036467903 0.273950453232393 1.61630965727401 0.0372600000000001
0.03728 4.37006296581596 5.13988426570782 10.4012847127573 0.27180292358512 1.62112798230673 0.0372700000000001
0.03729 4.64366531088665 4.91651026561387 10.5197938973218 0.270400032954702 1.64574100139227 0.03728
0.0373 4.85016260817177 4.89224008359729 10.3817126921574 0.275272447645039 1.61175131604691 0.0372900000000001
0.03731 4.61546025454627 4.80477140693687 10.4194140680382 0.259984917126056 1.64079729928658 0.0373
0.03732 4.50352019768734 4.94504329266051 10.4984112608092 0.265536645503389 1.64604168864999 0.03731
0.03733 4.75328644875428 4.93623789589997 10.5078453626756 0.268406911373069 1.64902967070057 0.0373200000000001
0.03734 4.47567897577597 4.83827220573816 10.5874699569769 0.258036424137067 1.64000855588299 0.03733
0.03735 4.3552833828961 4.76051143304962 10.673870976175 0.257414159517475 1.6493572439753 0.0373400000000001
0.03736 4.31233464961462 4.74013772920467 10.657109749655 0.248398939103678 1.65062033097723 0.03735
0.03737 4.5100908007841 4.94294153767889 10.5379102972583 0.26787639503545 1.62723944754819 0.03736
0.03738 4.3956392023509 4.76229557224204 10.5372980182183 0.251467586208428 1.65686410029152 0.0373700000000001
0.03739 4.45702452928315 4.68880055470763 10.6945010821217 0.249711586986886 1.67400322946432 0.03738
0.0374 4.40498123649759 4.63282084750017 10.7380579161454 0.245945650003617 1.65907394227674 0.03739
0.03741 4.30158656759956 4.75503445143116 10.7057844970578 0.251435094451664 1.643175091593 0.0374000000000001
0.03742 4.42185632412268 4.76823281913483 10.6519783015001 0.254871309320534 1.66161902399443 0.03741
0.03743 4.41908852467111 4.7163066431361 10.7164604412118 0.255676157880025 1.65076908309701 0.0374200000000001
0.03744 4.56204621902612 4.75156864885602 10.618862457546 0.258604973279094 1.63574480423323 0.03743
0.03745 4.53551906595276 4.81936307961952 10.6499580960363 0.262025059334813 1.6498061375882 0.03744
0.03746 4.54424594201445 4.67946766852506 10.6955215114799 0.257379732197166 1.6470156822645 0.0374500000000001
0.03747 4.59979850891575 4.8376917363406 10.5526016738834 0.263323164173451 1.62637581875968 0.03746
0.03748 4.60433447616369 4.81377671967302 10.5294181325552 0.268542324339538 1.63868457801771 0.03747
0.03749 4.54486468230621 4.66193792261821 10.6480098125857 0.258413755128577 1.65366696290597 0.0374800000000001
0.0375 4.25441485789914 4.64253314120266 10.8518561833053 0.243946262427792 1.66153208062692 0.03749
0.03751 4.51389190280235 4.8604139843097 10.6548826419669 0.25631111768489 1.65360804691281 0.0375000000000001
0.03752 4.67249948046187 4.81414383557411 10.7048798367061 0.26757292808274 1.65284939053678 0.03751
0.03753 4.41708909674829 4.91325107303055 10.6491508292504 0.259668499993689 1.65707857407376 0.03752
0.03754 4.57450121655029 4.90553889614557 10.5766473557389 0.265844692537549 1.62991999678496 0.0375300000000001
0.03755 4.66182997365321 5.02916792374437 10.574824624472 0.275089681681598 1.63761125072971 0.03754
0.03756 4.81595537131193 5.08326439080876 10.5581095350453 0.274604606374246 1.65321201676125 0.0375500000000001
0.03757 4.76167207663261 5.09238505110965 10.6150949256326 0.276585171555635 1.64806680364259 0.0375600000000001
0.03758 4.68959167456676 4.89582724911139 10.570374873859 0.271126745818086 1.63727630379344 0.03757
0.03759 4.59900950257219 4.89817293959957 10.5704123968978 0.261878695653242 1.63271493046081 0.0375800000000001
0.0376 4.70290028953532 4.91913432760528 10.509238980277 0.270015550018818 1.62397489364289 0.03759
0.03761 4.55839710498857 5.07290415996516 10.5891676946682 0.266949460610596 1.66650048282985 0.0376
0.03762 4.76922048551824 5.26190594423556 10.5078658258471 0.276730251036555 1.64667572532871 0.0376100000000001
0.03763 4.72486478980326 4.98629717693335 10.612122868441 0.272545864504547 1.6438908483012 0.03762
0.03764 4.69449472377199 4.96362016545627 10.516392385776 0.271215979586709 1.63938323808654 0.0376300000000001
0.03765 4.49273128135326 4.8615020732986 10.5779254905073 0.261924630979576 1.64789791813477 0.0376400000000001
0.03766 4.76301016107964 4.91374268906777 10.7288865407157 0.274219130283735 1.66588676949593 0.03765
0.03767 4.45129399877961 4.87685098664192 10.7236554606522 0.261672933926105 1.65222938567913 0.0376600000000001
0.03768 4.71984354482342 4.85401001389019 10.7069117630881 0.270627526708438 1.65107719614784 0.03767
0.03769 4.56975800707468 4.7597728192975 10.7208891142811 0.264777363233277 1.63520321431851 0.03768
0.0377 4.40628796022518 4.72291460196082 10.7223932280205 0.253403358211271 1.65477154683886 0.0376900000000001
0.03771 4.54757224786131 4.71583692779575 10.7143219442297 0.257068969871452 1.64586038600843 0.0377
0.03772 4.44176182712686 4.8786358073932 10.7611476507826 0.26806286417563 1.66540915459716 0.0377100000000001
0.03773 4.43885180210452 4.78754811552025 10.7771685431561 0.255595966972707 1.68030714373117 0.0377200000000001
0.03774 4.46204026505285 4.75291657873611 10.8071669274179 0.24867990852497 1.68241479717074 0.03773
0.03775 4.35069808677751 4.6994043745326 10.7130439622201 0.256997375851446 1.67038620808898 0.0377400000000001
0.03776 4.69894867542526 4.85622647974372 10.7305339488383 0.27287228056419 1.66094341357979 0.03775
0.03777 4.76739317411209 4.82377131123886 10.8160222627927 0.267194278325579 1.65046830057946 0.03776
0.03778 4.49013850728127 5.03257417986193 10.6487754875818 0.260944625598457 1.66263841353965 0.0377700000000001
0.03779 4.81007804653034 4.88141456064765 10.6299833449583 0.271585258715067 1.65754251100813 0.03778
0.0378 4.58612426627397 4.9821980347365 10.7202334359714 0.270356095097714 1.64302783852951 0.0377900000000001
0.03781 4.6648729621639 5.04531779643199 10.6307644228562 0.27694357481657 1.66055779249343 0.0378
0.03782 4.62218078057087 4.8317329835071 10.7318443445832 0.262165104985359 1.65785572422529 0.03781
0.03783 4.64942873875451 4.8347967353824 10.6821709995084 0.263243750154406 1.65150326378155 0.0378200000000001
0.03784 4.56124439286168 4.91440203346935 10.6805672200573 0.270156764383096 1.64947784372625 0.03783
0.03785 4.45656438207994 5.11183968216874 10.6214078835733 0.273505068343543 1.64611123924351 0.03784
0.03786 4.88113099634726 4.99005651037947 10.5451863879965 0.272094332814294 1.66617769552545 0.0378500000000001
0.03787 4.64774575535205 4.90166994522458 10.7120953165734 0.265808013484954 1.67500590536409 0.03786
0.03788 4.68382195046318 4.94738257197963 10.7350708751971 0.273045289230552 1.64666020468744 0.0378700000000001
0.03789 4.71670929985513 4.86268956408352 10.785092947203 0.264043989075775 1.68125208109627 0.03788
0.0379 4.46666568084024 5.06723286759711 10.7144020130306 0.265733565749085 1.66961133131793 0.03789
0.03791 4.66173104416781 5.16396338250484 10.6244119591305 0.280984364244283 1.65031313213708 0.0379000000000001
0.03792 4.66338688821891 5.01601932903274 10.6514218000773 0.268689594357206 1.64943669888747 0.03791
0.03793 4.54868641963535 4.9394802042022 10.6802940532175 0.263635792286835 1.65811329823044 0.0379200000000001
0.03794 4.82184672619912 5.02529082411009 10.8375191473063 0.278370860157943 1.66928633163118 0.0379300000000001
0.03795 4.60045354101457 4.78093477932249 10.6515381549911 0.259116187760974 1.64685378043663 0.03794
0.03796 4.59258575871303 4.99935271965489 10.6347332644438 0.269734757282559 1.66451020870918 0.0379500000000001
0.03797 4.58194377547165 5.09390278160931 10.6875755418625 0.275779322879942 1.65171962413067 0.03796
0.03798 4.78415718761438 5.13802791527952 10.6222181180219 0.276234894995739 1.65110980409772 0.03797
0.03799 4.67797301621544 4.8157504107731 10.6666818202589 0.26856472774223 1.66919744680749 0.0379800000000001
0.038 4.69341234306534 5.03034156868231 10.7079451414588 0.266181712314406 1.68533793903506 0.03799
0.03801 4.65594772801353 5.09144961853125 10.7347417839948 0.275625274929676 1.66688198103412 0.0380000000000001
0.03802 4.7781674653163 4.89786780322521 10.7331534278659 0.270488568863431 1.66843413363539 0.0380100000000001
0.03803 4.48251033293364 5.04399615843978 10.7347622772758 0.274239534333248 1.65037835690044 0.03802
0.03804 4.50779105604581 4.96653836063632 10.6751497130713 0.259641168334839 1.67429274949592 0.0380300000000001
0.03805 4.46688033727102 4.78379537863769 10.7790000476091 0.260456212067211 1.69294491775809 0.03804
0.03806 4.60090330667601 4.94341396398973 10.8704978901459 0.267939138400703 1.68005083592371 0.03805
0.03807 4.73154737635442 5.14238330557723 10.6202520148019 0.276448103985167 1.64830243079692 0.0380600000000001
0.03808 4.61574038113713 4.8440851828312 10.8313370748445 0.26674911261296 1.6840700674331 0.03807
0.03809 4.44094553038315 4.8373069973572 10.797386603869 0.256710216499766 1.67697579691901 0.0380800000000001
0.0381 4.55504054539596 4.8646797919575 10.7839290330542 0.266289829757597 1.68118195366704 0.0380900000000001
0.03811 4.62933256349002 4.83201899403601 10.9470118134416 0.261653099548316 1.68218743505141 0.0381
0.03812 4.56397407713252 4.96056094875721 10.8202059079352 0.266878870551417 1.68060149570488 0.0381100000000001
0.03813 4.57759874259319 4.79732627151551 10.7981844549799 0.270670261664328 1.66475877399982 0.03812
0.03814 4.3882856606838 4.96226866626642 10.8065473610049 0.260030557566733 1.67618816001761 0.03813
0.03815 4.37026428997922 4.76564301574916 10.794089872103 0.252990246241356 1.67557166342688 0.0381400000000001
0.03816 4.34243009749263 4.85435855547755 10.8821051160765 0.260082090136057 1.67674116553829 0.03815
0.03817 4.57235430875878 4.91155460384911 10.7969163185779 0.267982703377154 1.66394613193316 0.0381600000000001
0.03818 4.4907139225896 4.82277845346524 10.7275641931721 0.263477948911787 1.64928617656071 0.03817
0.03819 4.54779698030512 4.81863311161111 10.8159077436098 0.258439880559788 1.68588206587573 0.03818
0.0382 4.43590836132552 4.95203906787411 10.7969505286062 0.266061462622908 1.66324751428019 0.0381900000000001
0.03821 4.83656069758671 5.11262062755555 10.7234804326109 0.275682866136703 1.67863841922893 0.0382
0.03822 4.81602690058632 4.98700109660574 10.7096634742051 0.273911612787083 1.6824831468934 0.03821
0.03823 4.76510768463156 5.01669204421117 10.6753622493558 0.281668181735653 1.65422940444926 0.0382200000000001
0.03824 4.91468647128406 5.25880068408455 10.5975830364735 0.278308708910858 1.6721668933332 0.03823
0.03825 4.9142838520056 4.9915137864363 10.6015319506657 0.280787072943395 1.64902156556932 0.0382400000000001
0.03826 4.93036596409727 5.32466728843527 10.6059157567055 0.288835941773691 1.64745024780893 0.03825
0.03827 5.00504966687732 5.23746812863181 10.6181026251231 0.290385938228534 1.65921600498338 0.03826
0.03828 4.98074031055585 5.22976854623847 10.4909998761731 0.284058647864432 1.66351997540768 0.0382700000000001
0.03829 4.84783207456699 5.0268496849101 10.6987408678095 0.267910603026598 1.67309776571686 0.03828
0.0383 4.93955263439342 5.25832179617284 10.6337875308553 0.285327202714962 1.65258018725218 0.0382900000000001
0.03831 4.903062316777 5.24534997969459 10.6655369151506 0.284761728932226 1.67757080320754 0.0383000000000001
0.03832 5.07646615789776 4.90164869115264 10.7290550975849 0.284274424056409 1.66376152145934 0.03831
0.03833 4.67976994003961 4.99598556021667 10.7772476508396 0.273609179205042 1.66106160479847 0.0383200000000001
0.03834 4.72628211308116 5.16509059927103 10.6854304989778 0.270279823398177 1.67052037978121 0.03833
0.03835 4.79591029162555 5.02507034953882 10.7029677920374 0.274166375852404 1.65953977024019 0.03834
0.03836 4.83622210833294 4.94916958143627 10.7600175808338 0.276620874427878 1.65644134981103 0.0383500000000001
0.03837 4.68336573214153 4.97579942899885 10.6732464814642 0.266981730854596 1.66856231492844 0.03836
0.03838 4.50483274607851 4.98432142610594 10.8928191416032 0.267420974610025 1.68803511092301 0.0383700000000001
0.03839 4.70795781401131 4.96371456891641 10.8301310332307 0.272550272291062 1.66613302351517 0.0383800000000001
0.0384 4.38742758529097 4.89249228461329 10.9252917866166 0.257957854230044 1.67119747446124 0.03839
0.03841 4.24213264677001 4.72229043394736 11.104640872469 0.248677052545486 1.70605711681132 0.0384000000000001
0.03842 4.33296355888232 4.76285165754305 11.0066914503545 0.25872321854781 1.68414040671661 0.03841
0.03843 4.29551848646812 4.91033131111273 11.0111185047801 0.254412496871123 1.70744980734838 0.03842
0.03844 4.35950206451263 4.6803345192418 10.9822926257634 0.251174587025778 1.68591166713331 0.0384300000000001
0.03845 4.41164436481159 4.850074817871 10.9461965930054 0.254700108812587 1.69640776023298 0.03844
0.03846 4.55683782452828 4.8593870642532 10.9693997132564 0.264374350293286 1.70837474764839 0.0384500000000001
0.03847 4.67817142261984 5.00747816504461 10.8646982975391 0.269298196290274 1.69345531746392 0.03846
0.03848 4.62426908333097 5.00051419903895 10.8541581986365 0.268059367630475 1.68306389910457 0.03847
0.03849 4.93439803107285 5.16470801435683 10.7458357065176 0.281853904794462 1.67650567608564 0.0384800000000001
0.0385 4.85082885514898 5.27526222596868 10.6206660216412 0.288667956614854 1.6556172499273 0.03849
0.03851 4.74711847459904 5.2551049207195 10.6428896751866 0.275593093281156 1.66670565445663 0.0385
0.03852 4.78067066362075 5.2967816200554 10.752277251813 0.281250082808067 1.69067990775701 0.0385100000000001
0.03853 4.8367656810789 5.31728656501003 10.6487878542834 0.288644722576283 1.65932213740698 0.03852
0.03854 4.94662947620529 5.34589558476422 10.6378137156659 0.291005942755514 1.67160396345755 0.0385300000000001
0.03855 5.02913519422024 5.20929260887929 10.7158662284757 0.279511461568291 1.68706837310714 0.03854
0.03856 4.96823325576545 5.17906735950845 10.6989620943749 0.292748521603035 1.65166517693755 0.03855
0.03857 5.06928757925679 5.30554060572904 10.6331343158217 0.287965505747066 1.66907246537023 0.0385600000000001
0.03858 4.89334510704123 5.06559362232914 10.7626706135895 0.274915463906468 1.7045279178652 0.03857
0.03859 4.8521651460732 5.10490090677087 10.735418912368 0.281184176398057 1.67415952000897 0.03858
0.0386 4.96932365574806 5.24244072456509 10.7842309409709 0.284225155053252 1.69224525974363 0.0385900000000001
0.03861 4.85017627992589 5.1911340586432 10.7400954633862 0.280493750962516 1.68887783483153 0.0386
0.03862 4.82222834114762 5.14005730422066 10.7584159420269 0.282346122252118 1.66487581150189 0.0386100000000001
0.03863 4.67015546216882 5.07418370628691 10.8436459863649 0.273103469086643 1.69089968628453 0.03862
0.03864 4.65384261630524 5.01481065919794 10.8526303518414 0.271434233337716 1.69700839863549 0.03863
0.03865 4.68704344354346 5.07152406404053 10.9509953509 0.277543400738725 1.70586497715021 0.0386400000000001
0.03866 4.57538113497154 4.98120360910591 11.0024285834969 0.268392491853141 1.68711654867382 0.03865
0.03867 4.51861769307327 4.90485936664142 10.8994364546177 0.262486214377167 1.69607177908039 0.0386600000000001
0.03868 4.58685318866957 4.90568486521517 11.0989985091219 0.262936314677237 1.74532332350507 0.0386700000000001
0.03869 4.61258794130055 4.82086596569409 11.0968730443422 0.267715357403344 1.67755847853685 0.03868
0.0387 4.49600833504886 4.77842572597633 11.0875683345804 0.259544364560142 1.69011668583264 0.0386900000000001
0.03871 4.78990284456584 5.13088883835264 10.9414391925065 0.273058553740789 1.71783128612769 0.0387
0.03872 4.68601407554855 5.19150773253232 10.9194413884192 0.28200939703278 1.67856485290743 0.03871
0.03873 4.47912588637777 5.05762175283352 10.8885284626436 0.26867416940618 1.69275165512031 0.0387200000000001
0.03874 4.73679525953386 4.90695061562384 10.9185212229652 0.268646086904162 1.68125009961289 0.03873
0.03875 4.72791428177457 5.12495844083592 10.863632005281 0.280610153628 1.69705618883025 0.0387400000000001
0.03876 4.78082018219527 5.05917242013525 10.7841468459914 0.27230185384483 1.697631004698 0.0387500000000001
0.03877 4.88166171477495 5.2646415954126 10.7656500559824 0.281930335599849 1.6718208135799 0.03876
0.03878 4.89717702278887 5.12807541323866 10.7530371712758 0.284994756016643 1.67450056065988 0.0387700000000001
0.03879 4.59589559309489 5.14713580955214 10.9258999906857 0.270297783329821 1.71406352856726 0.03878
0.0388 4.83076509947146 5.2492843385545 10.9506263779479 0.280652272883764 1.69683355833873 0.03879
0.03881 4.87784071241715 5.19898350688974 10.7920148513157 0.281550682503591 1.68718996052961 0.0388000000000001
0.03882 4.75110521176997 5.05682362274637 10.7487194037348 0.279282198997462 1.66793337313548 0.03881
0.03883 4.86968816034017 4.99324466335144 10.8508246237308 0.270356089880748 1.67593050626084 0.0388200000000001
0.03884 4.9487380936668 5.12495155420006 10.7878811987317 0.2886294965825 1.67342509129182 0.0388300000000001
0.03885 4.81268214466235 5.23080977800322 10.8024703333092 0.280814027841467 1.68998958193188 0.03884
0.03886 4.92600936885688 5.25963753167651 10.7950286026571 0.283349913293439 1.66137890572132 0.0388500000000001
0.03887 4.80898171917437 5.30232163665201 10.6751535178582 0.279756520683115 1.67707280608752 0.03886
0.03888 5.08867977999594 5.22541240187922 10.7703272360937 0.288469289747987 1.68184824402989 0.03887
0.03889 5.00453717193702 5.29733793597591 10.8207584749049 0.290438849584853 1.68386097477376 0.0388800000000001
0.0389 4.86382525880882 5.17325826188471 10.8717294886665 0.278394734063975 1.70541598470801 0.03889
0.03891 5.0144503098807 5.09267074188674 10.8377234301209 0.280614949576393 1.67978742013924 0.0389000000000001
0.03892 5.02500066387873 5.54613483514979 10.6360965542603 0.293916208053366 1.66846679135218 0.03891
0.03893 4.86594426844782 5.44611389627323 10.7842431371096 0.288542990955735 1.68597242428185 0.03892
0.03894 4.96842891441618 5.21079891324658 10.7450971765593 0.287207357592113 1.68413264081645 0.0389300000000001
0.03895 5.13370108357379 5.28015030158717 10.7877011371534 0.298493287663247 1.65585178406074 0.03894
0.03896 4.8321367786805 5.22111334663582 10.8159265255706 0.284294576991305 1.69588680748121 0.0389500000000001
0.03897 4.84253993552477 5.16731845763018 10.9551421920576 0.283892572389985 1.69549441666264 0.0389600000000001
0.03898 4.88903375647999 5.2823905551795 10.8703831130784 0.286542291473772 1.68444223881333 0.03897
0.03899 4.76107554415937 4.97482033251606 10.9708798115359 0.26901694554481 1.7011170965212 0.0389800000000001
0.039 4.70786124570517 5.19912955572594 10.8817444020599 0.278680678819092 1.70140074995481 0.03899
0.03901 4.61802493717253 5.01869641918235 10.9854325555929 0.274024251992078 1.71250600502946 0.039
0.03902 4.64890567010618 4.80168139431247 11.1493624460115 0.266616538713581 1.71995219106187 0.0390100000000001
0.03903 4.73158582352188 4.72081229286178 11.1150823079926 0.262549786858426 1.71127843683855 0.03902
0.03904 4.54145777823446 4.87058066027506 11.1789828778872 0.264517576876288 1.72591428249664 0.03903
0.03905 4.69255076199175 4.93756734309526 11.1737092229085 0.275536504498284 1.6986792601782 0.0390400000000001
0.03906 4.61340544233668 5.02896263191631 11.0287637320926 0.262353227485908 1.70622912027674 0.03905
0.03907 4.66662100154879 5.02840503500409 11.1510528624163 0.265146961591031 1.7222707081431 0.0390600000000001
0.03908 4.75308855390173 4.8695298537665 11.1161362435375 0.26419361827353 1.71529066508939 0.03907
0.03909 4.71227165495813 4.87403340551707 11.105514022784 0.267679096706864 1.72001218968361 0.03908
0.0391 4.64568631041722 5.12287991665203 11.1179541578561 0.27019960840629 1.70456590323336 0.0390900000000001
0.03911 4.70984350325557 4.99624537958738 10.9676834131231 0.27287688537415 1.70743212163366 0.0391
0.03912 4.84232512965049 5.08851772926979 10.9191089266515 0.282290185123443 1.70936388258169 0.0391100000000001
0.03913 4.81752764752327 5.23864273607941 11.0414549659835 0.282188313880729 1.72541944702443 0.0391200000000001
0.03914 4.7799708998701 5.11854148089464 10.969410756278 0.274248624588512 1.71649537694031 0.03913
0.03915 4.84683328715436 5.22167431878534 10.9607238690127 0.287313540114897 1.7035670550877 0.0391400000000001
0.03916 5.23882409296433 5.26447686501314 10.8776309869745 0.297249537431173 1.6983435619724 0.03915
0.03917 5.1197900268923 5.30996062498433 10.8532259242704 0.288927687228195 1.69347374088379 0.03916
0.03918 5.11243359257044 5.42493919836721 10.6507930432125 0.300298231116226 1.68009303223296 0.0391700000000001
0.03919 5.22936356911283 5.50451983328695 10.8593599331113 0.308210213041651 1.70460600465394 0.03918
0.0392 5.09511345037564 5.46012987302594 10.8384339682469 0.29166414080299 1.69898053276649 0.0391900000000001
0.03921 5.10075537167089 5.52056332207381 10.7726932089657 0.296220622721445 1.68602417918283 0.0392000000000001
0.03922 5.04978062577684 5.13679176289505 10.877214928577 0.279951210157832 1.71298958554303 0.03921
0.03923 5.02851964692499 5.30342995176415 10.8822374692878 0.290078566057708 1.69479324274913 0.0392200000000001
0.03924 4.99544016005054 5.33943067417693 10.8535050778521 0.298711811130704 1.69190675578495 0.03923
0.03925 4.87023922917072 5.26863928272313 10.9209969038952 0.285077720045637 1.70124478197649 0.03924
0.03926 4.90022760045129 5.42408238902744 10.8914666026263 0.288012661965866 1.70831503695872 0.0392500000000001
0.03927 4.85032972596508 5.24474692673591 10.9777216264685 0.28207889037777 1.72141895806068 0.03926
0.03928 4.84447077776717 5.02644605030738 11.1183993013581 0.276606077467911 1.73030269820936 0.0392700000000001
0.03929 4.7717041783968 5.06641562734371 11.0400582565972 0.273694808399954 1.71690847466325 0.0392800000000001
0.0393 4.8454052514663 5.15671033304393 10.98874922604 0.284775199486911 1.73088574244137 0.03929
0.03931 4.83849743198553 5.05613107847246 11.1309777977396 0.273623701853071 1.71583051968379 0.0393000000000001
0.03932 4.66779277690049 5.0258694108049 11.1266422919535 0.273461716516291 1.71266667289689 0.03931
0.03933 4.71090525289131 5.19031797584303 11.0485714348915 0.275580723803266 1.72180536547673 0.03932
0.03934 4.68245131516374 5.0724495643216 11.0369807537752 0.278144595801196 1.72057796008422 0.0393300000000001
0.03935 4.85715033187627 5.2464587379873 11.1170769865185 0.293595650428751 1.74047436807841 0.03934
0.03936 4.81420198938687 5.13290984611072 11.1810794467296 0.275401296509598 1.72937798828482 0.0393500000000001
0.03937 4.77511373368406 5.14948430562606 11.0596273569282 0.271264340831448 1.72891154623484 0.03936
0.03938 5.03092590646687 5.16864619481365 11.0074031588336 0.287004471326377 1.72201262064711 0.03937
0.03939 5.04408162756216 5.07474754554974 11.0691364795273 0.277101290339755 1.71579628416393 0.0393800000000001
0.0394 4.88623087258641 5.37521495149124 11.0221452207949 0.288891798611715 1.71182966323555 0.03939
0.03941 4.93605240334162 5.20908984342535 11.0100291974868 0.284437024680557 1.69434172221578 0.0394000000000001
0.03942 5.1807925161292 5.35052227814651 10.9265643301613 0.291296896726376 1.70401625900098 0.0394100000000001
0.03943 5.09479000184686 5.48306686497208 10.8481866865933 0.296429010065122 1.71847339696492 0.03942
0.03944 5.06498448539402 5.35037116945618 10.8778285645214 0.291073228049901 1.71476314463676 0.0394300000000001
0.03945 4.96650947000715 5.15476422223277 11.0200395144317 0.285462450697718 1.70570622359837 0.03944
0.03946 4.92898324790202 5.34394652009802 10.9591221478117 0.295069039725692 1.71335293506794 0.03945
0.03947 5.02023892442677 5.43382254220377 10.9206811460404 0.293502605095803 1.69927658212158 0.0394600000000001
0.03948 4.77725095143924 5.30410073973686 10.9747682385273 0.280919469347482 1.72003232854779 0.03947
0.03949 4.9793154342108 5.28604902460312 11.011997781522 0.290790347985398 1.71573585038594 0.0394800000000001
0.0395 5.09256587404265 5.16802397172932 10.9521561448461 0.289866305351778 1.71113742026506 0.0394900000000001
0.03951 4.87313712147616 5.29919084812951 11.1031240718131 0.283263662705301 1.72913128915009 0.0395
0.03952 4.89828353060383 5.39986876410788 10.947955406447 0.290236803299545 1.70954967504811 0.0395100000000001
0.03953 4.70829539057231 5.25484447507133 11.0499664107723 0.277454857778819 1.72736606461214 0.03952
0.03954 4.72142106667976 5.34758052704218 11.2003918443337 0.276137114783695 1.73755119640269 0.03953
0.03955 4.82799354844449 5.32439506386542 11.0782958912034 0.284291085885817 1.72142117611911 0.0395400000000001
0.03956 4.90205633412271 5.12561442205289 10.894918135604 0.287880286346152 1.69789867581333 0.03955
0.03957 4.90992436533469 5.28742759307498 11.0108167495137 0.288161092908013 1.729848004168 0.0395600000000001
0.03958 5.12952002532634 5.31103279393065 11.0664543333716 0.294201906680841 1.72172562859553 0.0395700000000001
0.03959 4.95212026900233 5.17006842853218 11.0816898313132 0.275891341391962 1.7164741530812 0.03958
0.0396 4.91904780121399 5.2475488157899 11.0628764893317 0.288596558359753 1.70165619571682 0.0395900000000001
0.03961 4.8524535086026 5.30793361227316 11.1222187475667 0.285271930659957 1.72690092464033 0.0396
0.03962 4.90701596329176 5.27521506858228 10.9959638597627 0.29140925292707 1.71462379943552 0.03961
0.03963 5.22019734098888 5.4129874617123 10.9718130498783 0.298685980901515 1.71743274438088 0.0396200000000001
0.03964 4.969146221055 5.30838691357772 11.010654860927 0.290009163183456 1.70168866912847 0.03963
0.03965 4.95526212592844 5.35811729066368 11.0495837473396 0.289759642558135 1.69347767682548 0.0396400000000001
0.03966 5.03162278350892 5.49967348499784 10.9204485189182 0.292836459847187 1.73120467423973 0.0396500000000001
0.03967 5.16725139239957 5.41664675422783 10.8850192449811 0.298230156006845 1.70501747577214 0.03966
0.03968 5.14733881097555 5.35972596523458 10.9731641165191 0.300364063346239 1.71110161432746 0.0396700000000001
0.03969 4.97616440629037 5.19573655537543 11.0717081275609 0.285868308761731 1.73343878046982 0.03968
0.0397 4.87346347803915 5.09563239983444 11.1758035295657 0.274538582691311 1.7412391592622 0.03969
0.03971 4.72529988249526 5.28955666265283 11.1537357574314 0.281071708891625 1.72854748934508 0.0397000000000001
0.03972 4.78919950786581 5.06424927560346 11.2047573513331 0.278394337701575 1.73679677750973 0.03971
0.03973 4.75974081769635 5.19610719577235 11.3501048139462 0.275172811828586 1.75793343254104 0.0397200000000001
0.03974 4.71020122553182 5.37228813940875 11.1487642200354 0.284655108326794 1.72263406086764 0.03973
0.03975 4.78596755756349 5.0659680399837 11.2514459876654 0.276404311954593 1.75247536692287 0.03974
0.03976 4.92087432267153 5.11644760180669 11.2100294233817 0.282222530398641 1.74375102519014 0.0397500000000001
0.03977 4.76304019625485 5.22228916402886 11.2078394296815 0.282988251277819 1.7350490198249 0.03976
0.03978 4.97829719541341 5.33065658912367 11.0876417576862 0.294052718994209 1.72234060610416 0.03977
0.03979 4.67807619520061 5.31226109840475 11.2261496818167 0.275579124402649 1.74376995368787 0.0397800000000001
0.0398 4.81811243815591 5.15646783110518 11.3077101171898 0.273340799256305 1.74563302626578 0.03979
0.03981 4.97530500578587 5.21175602505998 11.0891754419075 0.283056608833597 1.7415134976268 0.0398000000000001
0.03982 4.82980264179714 5.47302330722968 11.0065195621346 0.282849594406717 1.74529710393891 0.03981
0.03983 4.93650914483456 5.27307901733126 11.0543333151032 0.283054029290638 1.72483906567854 0.03982
0.03984 4.94998355937796 5.26500806773259 11.1691369912236 0.285303755302598 1.72868308171997 0.0398300000000001
0.03985 5.04120775489289 5.6843074307942 10.960500869464 0.30035867536087 1.73054301700935 0.03984
0.03986 5.25397189000681 5.3977932512353 11.0510062264996 0.303499629916459 1.73738595853068 0.0398500000000001
0.03987 5.2567965927767 5.7083371053118 10.9912015327833 0.303300264927515 1.71769623111696 0.0398600000000001
0.03988 5.13409968099219 5.65701589806935 10.85194853846 0.306193766226006 1.70433980704395 0.03987
0.03989 5.16603080865954 5.65205611347518 10.8828364270029 0.306355202157194 1.70301383168384 0.0398800000000001
0.0399 5.27261696551633 5.81943553235205 10.8090194378583 0.303760760141712 1.72721908390653 0.03989
0.03991 5.26196366445681 5.60414296753401 10.840870104098 0.306568981865718 1.71092829878324 0.0399
0.03992 5.32877183322253 5.51910977705985 10.9604712610233 0.309772012137941 1.72016889447616 0.0399100000000001
0.03993 5.42878285921896 5.52268873204436 11.0184389729183 0.309887461195182 1.72049080631194 0.03992
0.03994 5.25990370191958 5.45461412187541 11.067234667525 0.300883917294534 1.7011620557615 0.0399300000000001
0.03995 4.98233597892622 5.53644416280571 11.0139919222267 0.297022941236179 1.73160944893616 0.0399400000000001
0.03996 5.05536910373205 5.39705548485432 11.1990834863693 0.287843798357558 1.76700590423919 0.03995
0.03997 4.90538208419882 5.24114306999861 11.3113589208088 0.286438334467011 1.7403927012428 0.0399600000000001
0.03998 4.98511814032238 5.32189855749563 11.1197683626598 0.28816126749384 1.72705222681073 0.03997
0.03999 4.84158762901742 5.02059242996101 11.3324763744274 0.269834541147564 1.768029930325 0.03998
0.04 4.8164601565126 4.95587420777571 11.3727353767654 0.275417513851455 1.75304117800293 0.0399900000000001
0.04001 4.91784294294481 5.18440011471066 11.3296851656802 0.283094853326875 1.7515656679695 0.04
0.04002 4.848527478558 4.89922108996201 11.3356674556559 0.276164312876802 1.75115796254564 0.0400100000000001
0.04003 4.67791984750673 5.24910579935524 11.265070535134 0.276571617964207 1.75492902978662 0.04002
0.04004 4.72458734129499 5.19551131970291 11.3290084699806 0.281809329181288 1.75838375460383 0.04003
0.04005 4.89826898319143 5.22255242648176 11.3401020927307 0.281705236026402 1.76618609134086 0.0400400000000001
0.04006 5.11440965055311 5.38340764612278 11.3627743052112 0.30198677163062 1.74195079220118 0.04005
0.04007 4.96220916641932 5.13819297638425 11.223569794088 0.277261514334565 1.77388005443737 0.04006
0.04008 5.02712643161516 5.28876265853312 11.228433768474 0.285383976653967 1.74760759367643 0.0400700000000001
0.04009 5.02233171539468 5.41854669078532 11.0873421806054 0.293696934641072 1.74283040523388 0.04008
0.0401 4.96444293117399 5.55903241636959 11.1579549191983 0.297988216359416 1.73287072680092 0.0400900000000001
0.04011 5.20444635221523 5.3085096822112 11.1220347174196 0.298248273948981 1.74387673633226 0.0401
0.04012 5.12007773126432 5.60440881826114 11.1037052894611 0.299216603333003 1.74381601693936 0.04011
0.04013 5.07881424125078 5.47436144223255 10.9868908048593 0.29441215566048 1.73228407399851 0.0401200000000001
0.04014 5.29151916122186 5.81650347690769 10.8584399980892 0.307593356434294 1.72889380030401 0.04013
0.04015 5.19290333634277 5.54063857287123 11.1178468587148 0.297688113824937 1.72841651126324 0.0401400000000001
0.04016 5.31683828607799 5.67200690465289 11.0028780152716 0.310272094337515 1.72721050336275 0.0401500000000001
0.04017 5.45463079807691 5.7224673559088 10.9640097001671 0.310488981163588 1.73402785726844 0.04016
0.04018 5.22333430741982 5.58937719073489 11.0189897443314 0.306604938659329 1.70786306677968 0.0401700000000001
0.04019 5.18975442584837 5.39278859196794 10.9854667926176 0.292969302945606 1.73481466948454 0.04018
0.0402 5.10694032151005 5.70328715947005 11.1074597122399 0.304382496826482 1.75547623514572 0.04019
0.04021 5.1624614000096 5.52475903631459 11.2087242302883 0.299020652548438 1.74928941489652 0.0402000000000001
0.04022 4.99991759815209 5.40560345926807 11.106085475911 0.291925229962413 1.74042250585195 0.04021
0.04023 5.02973846498055 5.44577202418836 11.2720271579357 0.286530398949987 1.77430546684859 0.04022
0.04024 4.84286699183708 5.37263903688082 11.3156041864276 0.28408010197639 1.7455956412024 0.0402300000000001
0.04025 4.97569124246715 5.37853413518615 11.1390865305253 0.296065051388482 1.72894706294056 0.04024
0.04026 5.05371865397744 5.33654215809039 11.2703470593732 0.290339428037819 1.76357545449529 0.0402500000000001
0.04027 5.19008840037649 5.29584840678298 11.4352325483322 0.295691214585328 1.74452421023051 0.04026
0.04028 4.98002500791641 5.19896170026442 11.2267955516415 0.286813586127166 1.72626232504557 0.04027
0.04029 5.15539518098119 5.22131926251385 11.1983038208031 0.286855310630069 1.74828113916171 0.0402800000000001
0.0403 4.99537383342129 5.39245892787958 11.138430221803 0.286995854176907 1.75541201042229 0.04029
0.04031 5.06735458741684 5.31326247338596 11.1227928321369 0.293840444269968 1.74943247531775 0.0403000000000001
0.04032 5.15808250731281 5.24540526099144 11.2121530769272 0.291207837620976 1.78473049162802 0.0403100000000001
0.04033 5.03233642101599 5.20018859722855 11.3089449075418 0.289267061035521 1.7521603919856 0.04032
0.04034 4.68984042195061 5.52584888538982 11.3328905532412 0.289722422070992 1.75369145287691 0.0403300000000001
0.04035 4.95270741958945 5.44641278168267 11.2663975818247 0.286769780894143 1.79007301464438 0.04034
0.04036 5.15634843371872 5.16771185485205 11.4439624013942 0.287632057451648 1.77327746370778 0.04035
0.04037 4.95603998755827 5.42102532958216 11.3321831075935 0.289373716662844 1.73189834364798 0.0403600000000001
0.04038 4.96812722050632 5.21071052484938 11.1610961731716 0.292763102310232 1.74564378578122 0.04037
0.04039 5.12794097401539 5.36220530420987 11.2345864735865 0.291445896583464 1.76309373229916 0.0403800000000001
0.0404 5.1136835066785 5.47670890953624 11.1502274048865 0.296880250147209 1.75346327552615 0.0403900000000001
0.04041 5.0603395509947 5.61376449178335 11.2836442143401 0.287714051937742 1.76393072363064 0.0404
0.04042 4.97861438946678 5.38230409080376 11.2182321946414 0.29553079768313 1.73916120926461 0.0404100000000001
0.04043 5.05461352384502 5.40521469307857 11.1700757549376 0.289984833184884 1.76297783913344 0.04042
0.04044 5.11791313071052 5.51243651775114 11.2029987753714 0.292217553006599 1.74950375901229 0.04043
0.04045 5.02450338133462 5.52437454501643 11.2550326100532 0.305107138300281 1.71722755498218 0.0404400000000001
0.04046 4.9964217078359 5.56435604760559 11.0185705075566 0.292061716234608 1.7580747461774 0.04045
0.04047 5.01787249603566 5.54512929302872 11.2584650402305 0.297404014383873 1.77012864439927 0.0404600000000001
0.04048 5.14899761412971 5.44757195577287 11.2449259463232 0.300535465730908 1.73378744531295 0.04047
0.04049 5.3489386692366 5.62614435314535 11.108235365983 0.308327138921851 1.72426675244963 0.04048
0.0405 5.26252686898381 5.50885498797099 11.1769110595229 0.299849805652149 1.74715898059133 0.0404900000000001
0.04051 5.220912414945 5.64322601405553 11.1151513524038 0.307568103246393 1.73542108002044 0.0405
0.04052 5.58243014364722 5.75265296864957 10.9608382510577 0.318150656809812 1.70896369178684 0.04051
0.04053 5.43221253643575 5.79101382060439 11.0230098452341 0.308272252299851 1.74549915983232 0.0405200000000001
0.04054 5.36205781713882 5.86273638869614 11.1511435986518 0.312530792039175 1.7538696686765 0.04053
0.04055 5.4515123280836 5.63028486247361 11.1087335384229 0.308199347669799 1.74893391978403 0.0405400000000001
0.04056 5.07259718180068 5.61130051076416 11.141575593933 0.302568543144592 1.75608410864208 0.04055
0.04057 5.19676251262541 5.55785100783439 11.1913248922761 0.301733275664445 1.74800376114274 0.04056
0.04058 5.34662215336807 5.46709437752021 11.1647349088234 0.30498031627552 1.74992163594603 0.0405700000000001
0.04059 5.21703124928017 5.60777028497526 11.2072810383522 0.306971068675987 1.76959211239962 0.04058
0.0406 5.24743078032289 5.65891663095348 11.2333826983683 0.30089812186586 1.77588581701695 0.0405900000000001
0.04061 5.33685537113856 5.49329568884385 11.2923616770808 0.308113407748424 1.75708455687339 0.0406000000000001
0.04062 5.01672319865538 5.33208188486956 11.3478347517467 0.286440316192648 1.7566227843971 0.04061
0.04063 4.85986821041973 5.22058372007409 11.4034467824879 0.27921765045063 1.77261373929633 0.0406200000000001
0.04064 4.9691223753747 5.2951420196977 11.5582859837098 0.280444419018063 1.78553866739554 0.04063
0.04065 4.94268216098304 5.30835390770926 11.5083341763861 0.285742712102886 1.76668604888834 0.04064
0.04066 4.89623346886979 5.26343528515839 11.4390685872326 0.286533848213755 1.76934538705086 0.0406500000000001
0.04067 4.80257314062383 5.37806833562717 11.4827900660697 0.279211077259302 1.79895851818071 0.04066
0.04068 4.9157882615143 5.26083001140995 11.4824139795142 0.288564959380304 1.78794290114456 0.0406700000000001
0.04069 4.97900374968701 5.25320595622247 11.4746002398316 0.284723046439944 1.7772064710506 0.0406800000000001
0.0407 4.97428179693779 5.17130247599775 11.4793225850781 0.282981557618439 1.7759967659557 0.04069
0.04071 5.00074907444375 5.40364776360718 11.4070575004017 0.293903801581654 1.77569146488839 0.0407000000000001
0.04072 5.07163137960836 5.5021825261178 11.2018494048853 0.294040785441197 1.76553851440324 0.04071
0.04073 5.05362864521733 5.65759386518441 11.3640602689162 0.306481085688962 1.76765784237373 0.04072
0.04074 5.17163805997888 5.53772701420649 11.28064333709 0.29852964426703 1.76377611818018 0.0407300000000001
0.04075 5.4185633200822 5.64122273190005 11.1586594546227 0.307461038122008 1.75059525660779 0.04074
0.04076 5.38220190499465 5.85664605069479 11.101654514787 0.318933513552712 1.74279340252147 0.0407500000000001
0.04077 5.30770856057254 5.78179076363527 11.1629184092324 0.309880712385729 1.76019690883518 0.0407600000000001
0.04078 5.27272644861663 5.79756132131902 11.1953666865642 0.31199182861371 1.77099348528916 0.04077
0.04079 5.27278665074498 5.66603731118812 11.2456334115519 0.30682232659028 1.7368335504428 0.0407800000000001
0.0408 5.53048702949695 5.6911261175303 11.1030816668847 0.315281152952051 1.7613541833927 0.04079
0.04081 5.40181724885297 5.80949686310073 11.1513644386736 0.314439541671861 1.74997569408882 0.0408
0.04082 5.37165011438414 5.73418535928027 11.1823623746615 0.30731680571991 1.77071561713454 0.0408100000000001
0.04083 5.41452118124328 5.71029223566433 11.2818245030537 0.309793613391256 1.74292515190839 0.04082
0.04084 5.46409190088971 5.78543863916107 11.1390150161785 0.318632332686883 1.72732399847261 0.0408300000000001
0.04085 5.29840478967965 5.60486086392098 11.1647769940502 0.301478769588462 1.77162478417582 0.04084
0.04086 5.02053960321942 5.65796568733241 11.3354732186405 0.302367075117548 1.77942829395965 0.04085
0.04087 5.22276428987554 5.78446972907257 11.2899268354069 0.306889025729976 1.78716398182792 0.0408600000000001
0.04088 5.18667432756671 5.42156059124758 11.2909502391995 0.301189329481324 1.77370067530199 0.04087
0.04089 5.02081792576664 5.39368745470498 11.4251964043628 0.290911964864229 1.78582245729468 0.0408800000000001
0.0409 5.10284017609702 5.46022814767195 11.5136435370267 0.298735381926084 1.78241670360647 0.0408900000000001
0.04091 4.69533303463922 5.39673323729024 11.4382548956443 0.277688337565524 1.76860157501345 0.0409
0.04092 4.79344080165482 5.30557562085833 11.519567281717 0.281677714673893 1.79402487463404 0.0409100000000001
0.04093 4.93239864132714 5.38667712634896 11.5173933469539 0.287248942735849 1.79142265023722 0.04092
0.04094 4.88726500380001 5.40016503418582 11.52049021891 0.286962059211649 1.81068005051621 0.04093
0.04095 4.86978297564611 5.27459043433086 11.5566594357191 0.28292583598624 1.80106947574993 0.0409400000000001
0.04096 5.09715137559294 5.43413948733003 11.4368282929319 0.295341497836408 1.77424004105823 0.04095
0.04097 5.09310738198566 5.48803481711012 11.3896618928023 0.294016990719363 1.77980253700154 0.04096
0.04098 5.2138217438005 5.41579335368788 11.2741659113149 0.305875455536622 1.75887279272144 0.0409700000000001
0.04099 5.22819002371758 5.47416239389578 11.4513819299101 0.307432481514215 1.77865838188088 0.04098
0.041 5.21859386926298 5.5872341192742 11.4035960937393 0.30483770276611 1.76712252237458 0.0409900000000001
0.04101 5.31735249556393 5.60981870326312 11.3544603268123 0.306237919695905 1.76798047961243 0.041
0.04102 5.30042776687316 5.55138394678618 11.391042202866 0.306880287752499 1.77791458634091 0.04101
0.04103 5.24228553139281 5.68216151150692 11.3380750458363 0.308962805801255 1.76677898965929 0.0410200000000001
0.04104 5.44022421370883 5.88321333069398 11.219335915326 0.322479746510805 1.75465407638534 0.04103
0.04105 5.48199685437582 5.66873428649757 11.1800654101436 0.306685084338713 1.77194075312069 0.0410400000000001
0.04106 5.49362359201146 5.60735822341243 11.2243834131659 0.31370115859372 1.75682372024963 0.0410500000000001
0.04107 5.383192720795 5.80266645064932 11.2399483577799 0.314006264624741 1.77798536464508 0.04106
0.04108 5.26369360394349 5.83982887742435 11.2479620307089 0.318199154715967 1.75920505535079 0.0410700000000001
0.04109 5.10300054189939 5.56913771431978 11.2346908407113 0.292889879010743 1.79123314229246 0.04108
0.0411 5.45432668384187 5.76356098743655 11.2938668247937 0.319198452681494 1.78630108203829 0.04109
0.04111 5.54132633365037 5.66013455653448 11.2103685224007 0.319253409950645 1.77578527037666 0.0411000000000001
0.04112 5.40834234702185 5.82523315333714 11.1909857086684 0.31972480177286 1.78004266985864 0.04111
0.04113 5.48756147873311 5.74217821297355 11.339338381702 0.302742686693485 1.78784473199156 0.0411200000000001
0.04114 5.48005409758708 5.58635980816808 11.3464160499042 0.309644532650733 1.75415496407242 0.0411300000000001
0.04115 5.27960966303106 5.56270022785664 11.3211435978147 0.307708820516003 1.77965627390932 0.04114
0.04116 5.44417733374333 5.56822256746774 11.2996156449001 0.298413521955379 1.79353701366826 0.0411500000000001
0.04117 5.02774151054558 5.54225885273591 11.495283771623 0.302138681247798 1.76792747970865 0.04116
0.04118 5.12133717370545 5.53570578614678 11.4705032424029 0.301464669247731 1.77518053917835 0.04117
0.04119 5.12024897507604 5.47937659736821 11.5486430338329 0.295878882235043 1.7938287509292 0.0411800000000001
0.0412 5.12923732541843 5.41407305293306 11.4839299484762 0.296468910552243 1.77769031028777 0.04119
0.04121 5.0747545551188 5.61484434124599 11.5560132036027 0.302758210684859 1.78467289754787 0.0412000000000001
0.04122 5.02355654974365 5.51959015271871 11.5044451936311 0.296971891043084 1.78862263056757 0.0412100000000001
0.04123 5.10139431873287 5.52891165044292 11.4975045962708 0.304719807701725 1.77668613947634 0.04122
0.04124 4.99657293633826 5.7060153504547 11.5068654442814 0.305088211946461 1.77400039528912 0.0412300000000001
0.04125 5.05397135699512 5.53702547303335 11.4595363496112 0.298285737408307 1.7908972992598 0.04124
0.04126 5.17522236468439 5.42878997718464 11.5001332327937 0.297943198298616 1.79143606489885 0.04125
0.04127 5.2143314684103 5.55798198359564 11.5046629567077 0.297159888986257 1.78956557508657 0.0412600000000001
0.04128 5.30311761920655 5.45128124368575 11.440002624721 0.305863405670176 1.79550279678355 0.04127
0.04129 5.1875985622882 5.62648990742703 11.4802075932796 0.298686312716084 1.79405291701318 0.0412800000000001
0.0413 5.30958730726851 5.53253170605247 11.4741298744505 0.300085397981429 1.80020739919051 0.04129
0.04131 5.4055613361154 5.54140837890892 11.4415467554396 0.305267591384071 1.79928507753443 0.0413
0.04132 5.2687557763347 5.60054129712723 11.487437453316 0.304460353747776 1.76412430464656 0.0413100000000001
0.04133 5.38860771849433 5.70545179576041 11.2827969969661 0.310396134911458 1.77430472650774 0.04132
0.04134 5.43360420220038 5.63885591332826 11.4128297356487 0.308900698552958 1.80878197556371 0.0413300000000001
0.04135 5.24004706450267 5.74868570060847 11.3271206967114 0.304645967519114 1.78076969197178 0.0413400000000001
0.04136 5.38838283831523 5.74420082871611 11.3060258920052 0.313814087022032 1.78146805504132 0.04135
0.04137 5.4111573296118 5.6769738559793 11.4797072003523 0.310814687846374 1.77814728315807 0.0413600000000001
0.04138 5.41239055775554 5.61713916261488 11.3951059928357 0.307910458133956 1.77482106207692 0.04137
0.04139 5.3019373535628 5.51129090858584 11.4390765455637 0.30793663898884 1.77089241434216 0.04138
0.0414 5.15773165110276 5.64171630821042 11.3405280001503 0.299142332352022 1.78758994698183 0.0413900000000001
0.04141 5.19747525513709 5.77103949933221 11.4263228993491 0.303677542868575 1.78561893064354 0.0414
0.04142 5.2908802697255 5.82144541807467 11.4317849142659 0.31013676089599 1.80425362508112 0.0414100000000001
0.04143 5.3476215530955 5.88037645512293 11.3005077974839 0.315948296349749 1.76397750407949 0.0414200000000001
0.04144 5.33678515921309 5.74003887293803 11.352972873683 0.313995201241936 1.78495098569706 0.04143
0.04145 5.39758981770397 5.72659101149297 11.4996091414907 0.318909012589492 1.77772866129189 0.0414400000000001
0.04146 5.40107128914085 5.65139662853174 11.391392869455 0.308724668296054 1.78568804251831 0.04145
0.04147 5.21132837542702 5.65738901639012 11.4907137522294 0.306598090190875 1.803765388305 0.04146
0.04148 5.4626684650755 5.82034297663241 11.4927533482101 0.312951468586425 1.80079740860725 0.0414700000000001
0.04149 5.20943335922214 5.70067390991222 11.4305189615721 0.301870452478166 1.79280595977821 0.04148
0.0415 5.46999505207567 5.78894413778657 11.272007056093 0.307921881372427 1.79050547479479 0.0414900000000001
0.04151 5.25506862985126 5.8170428804661 11.3884183389091 0.305589140665172 1.80987486288613 0.0415000000000001
0.04152 5.31005821891798 5.72929176118968 11.4364481807847 0.310510096884692 1.7818448862093 0.04151
0.04153 5.30342320689512 5.64070134812958 11.4021590979277 0.309064424370026 1.81215828539055 0.0415200000000001
0.04154 5.1663558351412 5.56954492517582 11.5664934195009 0.297656983856927 1.81561326174983 0.04153
0.04155 5.4463891794357 5.76347740383138 11.506271705071 0.312232396799646 1.77784353017324 0.04154
0.04156 5.3180907902212 5.7111974129341 11.4520735645622 0.309631159207428 1.77498639704183 0.0415500000000001
0.04157 5.40343038101726 5.71993956538526 11.4938681345106 0.303080364163088 1.81970048218958 0.04156
0.04158 5.3587000852472 5.59656207304574 11.5116516965708 0.313599533295196 1.78700855460967 0.0415700000000001
0.04159 5.26688368187717 5.72538946391368 11.5061669131089 0.308825095933183 1.81164086377013 0.0415800000000001
0.0416 5.3012611409822 5.69045619114206 11.531900462899 0.312841490361694 1.80662726399775 0.04159
0.04161 5.36050555325749 5.6297406835876 11.5540090749175 0.308621771440108 1.78971981653451 0.0416000000000001
0.04162 5.22739805387788 5.65476324068111 11.4230491711003 0.306766790848184 1.77927947248295 0.04161
0.04163 5.26167280488637 5.76678571003571 11.4840205458723 0.306234876368939 1.82115455565818 0.0416200000000001
0.04164 5.32506114611422 5.5924330369952 11.5415817652806 0.307303805360382 1.79404942768853 0.0416300000000001
0.04165 5.23044077369039 5.58786461396214 11.539138524162 0.310521073215887 1.78709541903601 0.04164
0.04166 5.40373734393882 5.61738800329088 11.5627506990731 0.311627600638182 1.80762502063641 0.0416500000000001
0.04167 5.38479440543237 5.91987727741904 11.473780368721 0.32143671563706 1.79257534901169 0.04166
0.04168 5.34440520602023 5.67358840128789 11.3752415250264 0.303360583076104 1.78153880684923 0.04167
0.04169 5.23748272115399 5.79585676515759 11.4155717048554 0.314021813708483 1.7744608574096 0.0416800000000001
0.0417 5.30647878836402 5.77865553759295 11.3224371922082 0.30901386229978 1.80477674237327 0.04169
0.04171 5.63778572963583 5.71291970991437 11.4210139883853 0.313600262505487 1.81408543949139 0.0417
0.04172 5.23120718784715 5.80706448421174 11.5129995103822 0.311935837989138 1.7861553428316 0.0417100000000001
0.04173 5.24432553292045 5.8223784607077 11.4825559535461 0.298026572141109 1.80098778913795 0.04172
0.04174 5.5695818133197 5.89934332770735 11.392152926053 0.325904104808296 1.79551020317863 0.0417300000000001
0.04175 5.35979372697132 6.00788696598042 11.4089286321921 0.320556826656949 1.80357905027287 0.04174
0.04176 5.51999422134719 5.96941798145626 11.4674372286093 0.323533573811864 1.80234819790961 0.04175
0.04177 5.43367885712827 5.88534829350469 11.5202168724723 0.312978177353178 1.79610852066123 0.0417600000000001
0.04178 5.40559892204969 5.77259652604542 11.4485800065557 0.311221007678706 1.79151773973273 0.04177
0.04179 5.28118784209916 5.64764590412417 11.4577785162128 0.307536207214234 1.78294922168227 0.0417800000000001
0.0418 5.47910287812557 5.82678581852384 11.5208173888455 0.319522947736825 1.79508349469776 0.0417900000000001
0.04181 5.60415416251656 5.76355937494829 11.4636966364422 0.32158471568687 1.79736814392028 0.0418
0.04182 5.54093256221136 5.83228752800271 11.3975401503783 0.315797137553487 1.80163907013654 0.0418100000000001
0.04183 5.50355808223729 5.42588759257434 11.557812934977 0.299788943447272 1.81466057019787 0.04182
0.04184 5.42581211998511 5.74590613199507 11.5665159790214 0.316452715698811 1.80048311628799 0.04183
0.04185 5.26004627410586 5.9318672577591 11.5551068441184 0.309419171718738 1.82240269917541 0.0418400000000001
0.04186 5.36253877275657 5.87189146912137 11.5458222343857 0.309178963582897 1.81956858211159 0.04185
0.04187 5.05572721619985 5.74697407819879 11.6454940178532 0.297693189558461 1.81987465975862 0.0418600000000001
0.04188 5.22913011025039 5.60093214278727 11.6146828722789 0.304597458438212 1.81126621377056 0.0418700000000001
0.04189 5.25076540228021 5.6255776519128 11.6704414369171 0.313013682506214 1.81587097222348 0.04188
0.0419 5.37541099823036 5.73708297063325 11.5568934675608 0.30905872277109 1.82404485784281 0.0418900000000001
0.04191 5.12537857460304 5.51157120921761 11.75919305523 0.300588922329375 1.83297314943789 0.0419
0.04192 5.25051328847037 5.74953461654148 11.6195114531779 0.31157216069244 1.79510963243684 0.04191
0.04193 5.44332573524195 5.86629524791645 11.4021706058997 0.311805669235187 1.81110780027293 0.0419200000000001
0.04194 5.35520088463557 5.65249328923311 11.5504822140116 0.308385716923038 1.80558121363308 0.04193
0.04195 5.42229840467326 5.94552929802271 11.4554829390647 0.313414498408343 1.81364914951195 0.0419400000000001
0.04196 5.39822716337152 5.73612725016227 11.6785110514391 0.317385131672206 1.8230844275284 0.04195
0.04197 5.40543648107427 5.81967601999534 11.5727519280114 0.313650711009663 1.80739520569072 0.04196
0.04198 5.38194513083522 5.82040851839118 11.5352106204982 0.307428866869664 1.8053449238652 0.0419700000000001
0.04199 5.41728337970013 5.64510509242762 11.5070807417205 0.315470126504324 1.81077288573262 0.04198
0.042 5.42914664864284 5.9828963180753 11.4690613545605 0.324612464286245 1.81044675259253 0.04199
0.04201 5.40184576793929 5.98805890297233 11.5433874280739 0.314820560807449 1.81255640603227 0.0420000000000001
0.04202 5.48571343498966 6.0768789486676 11.4108345567443 0.325705270930995 1.79670783817899 0.04201
0.04203 5.53102520929692 6.07519039993014 11.4659856844844 0.323442637688969 1.80159195114286 0.0420200000000001
0.04204 5.45143407423755 5.95431635679946 11.5107405339215 0.325587235294692 1.79270749891856 0.04203
0.04205 5.42372929264928 5.97625923496131 11.5523732760799 0.324996765863715 1.80833576828256 0.04204
0.04206 5.4387870513401 5.76706959839106 11.5496783935679 0.305125819986134 1.8138814374326 0.0420500000000001
0.04207 5.42991282010648 5.93517273461767 11.4153412054805 0.316380513406117 1.80549353570895 0.04206
0.04208 5.42605316541506 5.783502363441 11.5334131639694 0.315799944752661 1.79898437856157 0.0420700000000001
0.04209 5.31758926784258 5.75280426950218 11.5954832473237 0.30877602106297 1.80970848609826 0.0420800000000001
0.0421 5.35264693748432 5.88260546611611 11.550901412917 0.318207399564628 1.81952015429884 0.04209
0.04211 5.25206276940348 5.71170845860595 11.5820799408681 0.307165102363453 1.80334717601573 0.0421000000000001
0.04212 5.53005082064093 5.78973027447205 11.5847023968296 0.317845522856029 1.81394175962851 0.04211
0.04213 5.67568661517599 5.70969891734316 11.6074320880598 0.312757142532259 1.81804371224719 0.04212
0.04214 5.62964532464021 5.88771546816227 11.5222785983537 0.318771946575109 1.81579328185524 0.0421300000000001
0.04215 5.29581745673545 5.74564486995973 11.5264710423307 0.30969407534973 1.81239919674773 0.04214
0.04216 5.47736474543848 5.8003884397126 11.5719027526633 0.316016458592723 1.81192706709879 0.04215
0.04217 5.41730325151218 5.75189026825153 11.6493534110214 0.3085933533887 1.82903204463935 0.0421600000000001
0.04218 5.37873113217016 5.70954050665498 11.5868365255732 0.313073741265119 1.80734319634026 0.04217
0.04219 5.45434268920729 5.64721090956179 11.6454492500144 0.314541459024341 1.80185648061168 0.0421800000000001
0.0422 5.35364649210178 5.75779889875869 11.5612947177051 0.301714587040133 1.848360783115 0.04219
0.04221 5.38063740907512 5.84104822663643 11.6094278983168 0.319225679376684 1.81784796354305 0.0422
0.04222 5.23245679219331 5.78106216100273 11.6204739220434 0.308155057336375 1.84375893517625 0.0422100000000001
0.04223 5.43655563565829 5.89104939548961 11.5031332306149 0.320168012401711 1.82202922204158 0.04222
0.04224 5.6496041550869 5.94083813206643 11.5842834809885 0.332058099676326 1.82675986415745 0.0422300000000001
0.04225 5.47684103429372 5.81381597223517 11.620202002001 0.31681592081008 1.83488647097707 0.0422400000000001
0.04226 5.4559434415466 6.01566995686142 11.5973575364495 0.327148564630008 1.79492368307903 0.04225
0.04227 5.47016592103249 5.91198926297878 11.4724035368316 0.312695273144203 1.81028068713661 0.0422600000000001
0.04228 5.57918616845314 5.90290859342048 11.5726713628311 0.323852037915443 1.82816957122783 0.04227
0.04229 5.65195321988143 5.84116764849484 11.6222148463679 0.326195494817884 1.8096358739507 0.04228
0.0423 5.5626226321672 5.90086006464755 11.5501302846586 0.321762086369802 1.8028805673718 0.0422900000000001
0.04231 5.53874547114253 6.15240371719234 11.4452248600045 0.328497414574731 1.80550846767368 0.0423
0.04232 5.39688045490316 5.92382728206518 11.593744542934 0.321583096710342 1.81970713099267 0.0423100000000001
0.04233 5.51487452162226 5.83516034345122 11.6021586161623 0.318594141287498 1.81566526116492 0.0423200000000001
0.04234 5.54756528241427 5.83695640555886 11.5906927303279 0.323640572369134 1.81394903025749 0.04233
0.04235 5.5052278512853 5.77487251962018 11.5457559483206 0.31841922972655 1.81083236196754 0.0423400000000001
0.04236 5.50217301185225 5.74397335271863 11.6866772188233 0.317644785603369 1.8205672024982 0.04235
0.04237 5.58313986279035 6.06789210542423 11.5845497599322 0.332398680267569 1.81160413496283 0.04236
0.04238 5.4652219697705 6.04555210109598 11.5421952567175 0.316317326571981 1.82158812094299 0.0423700000000001
0.04239 5.56702891695059 5.97123572804949 11.633633959566 0.32506940143877 1.82748467636427 0.04238
0.0424 5.36729696393891 5.89173237757619 11.7176204936037 0.31192906043827 1.82987940967484 0.0423900000000001
0.04241 5.38772244386761 5.84194465724126 11.6299180735177 0.313773768961646 1.81778277345477 0.0424
0.04242 5.50864777765781 5.94671383070748 11.558729989368 0.321525061361218 1.82564344325884 0.04241
0.04243 5.59508727883772 6.01934697525642 11.5669906671054 0.328511555232511 1.82434056655886 0.0424200000000001
0.04244 5.37066741844836 5.86543414599981 11.6711456566885 0.320805702863037 1.82525029833695 0.04243
0.04245 5.33981648281013 5.7505061930201 11.6773148518553 0.305879313708609 1.82506369462569 0.04244
0.04246 5.5162984106573 5.77097515895555 11.6272928058446 0.320286923255483 1.80617060727331 0.0424500000000001
0.04247 5.42839496984341 5.81840528852997 11.5919500220715 0.317841851886386 1.82085263799563 0.04246
0.04248 5.53692241305445 5.97088221083158 11.5898330392283 0.321870994994514 1.84694317010832 0.0424700000000001
0.04249 5.56939268666118 5.77296760626655 11.7975350545751 0.316646899241942 1.8482572769327 0.04248
0.0425 5.44732740125321 5.90866807691163 11.654155138298 0.324802238320533 1.83506461710447 0.04249
0.04251 5.43509847337067 5.85534357724761 11.741813095083 0.318496551645814 1.8469508640304 0.0425000000000001
0.04252 5.59091795502271 5.80840120778422 11.7393815254055 0.319683537967874 1.82693220030127 0.04251
0.04253 5.46603281064135 5.99362518807092 11.5916049817001 0.324478512425743 1.81896596265489 0.0425200000000001
0.04254 5.38572168325836 5.77204244627855 11.6710047303201 0.310343713476934 1.83868417160786 0.0425300000000001
0.04255 5.44004710833015 5.95070697430818 11.7077736124648 0.324701178730529 1.82202710895369 0.04254
0.04256 5.44403319579403 5.75133909893933 11.6481343334219 0.315110012283311 1.83185135898532 0.0425500000000001
0.04257 5.45171218789617 5.90622775480859 11.6735852719549 0.320124063607151 1.85136838650912 0.04256
0.04258 5.60171544748387 5.78417891418528 11.7606076313431 0.321830474074779 1.85135611402115 0.04257
0.04259 5.70335908903012 5.97537967188241 11.6626622217 0.330559029252633 1.82446104031996 0.0425800000000001
0.0426 5.47723705306095 6.11828111157654 11.7455023958673 0.323793729780866 1.83407663624292 0.04259
0.04261 5.51517483161106 6.02557964987401 11.6097053033845 0.317342747926114 1.8362105641414 0.0426000000000001
0.04262 5.54600819475312 5.93853950433761 11.6457438088681 0.320698369462072 1.84385143421509 0.0426100000000001
0.04263 5.49324420536777 5.84038748573522 11.8236387488711 0.32797234365149 1.85120752277274 0.04262
0.04264 5.65282724017025 5.82701198660028 11.7157932514709 0.323487647633738 1.82224643089082 0.0426300000000001
0.04265 5.52045695964625 5.8871967882639 11.7912861511061 0.323156951233292 1.82550494790956 0.04264
0.04266 5.56948668196873 6.01627020350287 11.6541923266831 0.332715123919676 1.81382680094328 0.04265
0.04267 5.50517649625757 6.00718064751605 11.6293900928969 0.324199260956416 1.83642026947425 0.0426600000000001
0.04268 5.4502499281109 5.97009753144978 11.6138588961964 0.319937000133179 1.83571625053796 0.04267
0.04269 5.5441174779206 6.07826496508765 11.6323700078441 0.328745011855986 1.84819410608849 0.0426800000000001
0.0427 5.50952736891834 6.13493487277902 11.64999556182 0.317218841547 1.85240792791123 0.0426900000000001
0.04271 5.69031283350789 6.08903834669207 11.6100286799281 0.334890470174855 1.8272150338067 0.0427
0.04272 5.70177067347641 6.08769206751062 11.6392027501879 0.332287322281533 1.82632530125612 0.0427100000000001
0.04273 5.64512961171867 6.19465979658275 11.6328234613741 0.333999905075376 1.83098251145994 0.04272
0.04274 5.57462640522918 6.17939395264369 11.6186956042563 0.325193637597288 1.85394467305557 0.04273
0.04275 5.62731986516668 5.88159405478029 11.7268016625706 0.326715640940759 1.81445057136349 0.0427400000000001
0.04276 5.70841377755725 5.98595004897095 11.5670236924939 0.327825348412002 1.83901524549949 0.04275
0.04277 5.80327645415309 6.12968809388485 11.7049558691028 0.338914230601993 1.84273064869623 0.0427600000000001
0.04278 5.57091992680471 6.11032526655517 11.6875012845812 0.329453594479988 1.8366196102645 0.0427700000000001
0.04279 5.68180682266856 6.06558490545007 11.6992164453807 0.321941223642678 1.84370534041734 0.04278
0.0428 5.51451886316182 5.92763271014398 11.7139055305693 0.330333514984654 1.81863833045251 0.0427900000000001
0.04281 5.43532841620048 5.78034236750919 11.7338727307889 0.313996911866389 1.83876141774172 0.0428
0.04282 5.24124785969175 5.90447563413414 11.8163011538839 0.317705646846228 1.85129850790755 0.0428100000000001
0.04283 5.56323985002849 5.93305672167353 11.7136692005987 0.322437221273562 1.84811031584015 0.0428200000000001
0.04284 5.61674682911667 6.01133790663283 11.8025121868689 0.325885804087981 1.8460157780493 0.04283
0.04285 5.51941623269143 5.94599306497115 11.8737840590012 0.322880136486804 1.85466091463546 0.0428400000000001
0.04286 5.39697364501153 5.92072337475443 11.8029075017108 0.31558856193718 1.85801833226889 0.04285
0.04287 5.46608473035298 6.09174068124495 11.7782166033971 0.32797010663734 1.85005175013749 0.04286
0.04288 5.49804421810809 5.96192955189409 11.7760517887943 0.325102216723754 1.85116931068016 0.0428700000000001
0.04289 5.56781464694015 5.77355414674576 11.8492646216956 0.316968090706917 1.84865396217551 0.04288
0.0429 5.42959013046226 5.98812682757597 11.7600147149129 0.324596670330588 1.83665986305731 0.04289
0.04291 5.30677819234545 5.78310614009426 11.8634744731315 0.311908606866306 1.8490131549708 0.0429000000000001
0.04292 5.55466259089901 5.98366295624074 11.7466366309882 0.32361906901707 1.84865943424874 0.04291
0.04293 5.42365038791395 6.20145830190067 11.7744037027274 0.32593271964401 1.86843703430422 0.0429200000000001
0.04294 5.67817308025806 6.17353820026524 11.6819361089838 0.331163887933057 1.84453038924964 0.04293
0.04295 5.69197731746905 6.11045277546474 11.7238170173964 0.33433987486697 1.82775880464703 0.04294
0.04296 5.58875716225698 6.00554841049502 11.6486911392127 0.320238414252584 1.83833146210361 0.0429500000000001
0.04297 5.71596841766915 6.06977314961239 11.6259114538241 0.33307169991261 1.83873878956602 0.04296
0.04298 5.76058842282978 6.15702595912626 11.6895033601994 0.335132979531375 1.84334458448401 0.0429700000000001
0.04299 5.84097611831532 6.21018005968602 11.5365871300491 0.343482092414687 1.84216518775146 0.0429800000000001
0.043 5.8775688831262 6.30682846741263 11.6213003090767 0.338405600384672 1.8531380942822 0.04299
0.04301 5.70483436080427 6.10259927428916 11.6669416594506 0.324285415866066 1.856097992945 0.0430000000000001
0.04302 5.7697022949525 6.24857783118676 11.6349473699039 0.344212442075572 1.82989822651707 0.04301
0.04303 5.79491028194004 6.30159284986174 11.5710824548916 0.336961825607754 1.83878215889164 0.04302
0.04304 5.64065699863838 6.04537809181267 11.6643027624109 0.331392745906626 1.85244385781477 0.0430300000000001
0.04305 5.57411034776183 5.94083908143083 11.7346107874557 0.321979199521804 1.83936254205712 0.04304
0.04306 5.46912015446978 6.0104780945076 11.829126886448 0.318331046053789 1.85715710656409 0.0430500000000001
0.04307 5.38185674639243 6.02086762087406 11.7814631794766 0.322043395982342 1.85249740163775 0.0430600000000001
0.04308 5.31900366022214 6.09883409847352 11.8352507471746 0.315863859156072 1.87626203226767 0.04307
0.04309 5.62870108419464 5.85609640507158 11.8920697963497 0.324150845564699 1.87232469799555 0.0430800000000001
0.0431 5.74573967889673 6.01299832241188 11.7686425454706 0.334801132475809 1.83607475043084 0.04309
0.04311 5.51882416065293 5.99166312201191 11.8513847783697 0.314650192923919 1.87366944854733 0.0431000000000001
0.04312 5.56981405927337 5.89348443141783 11.9405042093458 0.319124164213885 1.86153086860684 0.0431100000000001
0.04313 5.58022153143765 5.89570672908555 11.9157040713007 0.322103829174733 1.84811458197933 0.04312
0.04314 5.49492889750393 6.14517462258938 11.7353520061726 0.327832700993324 1.84366472598047 0.0431300000000001
0.04315 5.31864257092438 6.00406596375662 11.8411259628596 0.315417517273855 1.85378174417219 0.0431400000000001
0.04316 5.41083220149527 6.14965783268214 11.7338149120674 0.319457698170263 1.86710688311237 0.04315
0.04317 5.57002108920166 6.00428616953311 11.8523372516211 0.326496730135362 1.8745873340269 0.0431600000000001
0.04318 5.55018736138178 6.06436252710607 11.8545698835295 0.318577741255825 1.87450200814837 0.04317
0.04319 5.48155922612581 6.39037790399798 11.7027659154139 0.337149477427883 1.84676905907712 0.04318
0.0432 5.41640061031667 6.05189845654339 11.8115330961846 0.325421774343515 1.86374096389834 0.0431900000000001
0.04321 5.70892269816867 5.9178878864069 11.8830410067714 0.328399488390152 1.86051941966335 0.0432
0.04322 5.75064733796865 6.27432966263431 11.6074089832631 0.341609781891771 1.83666255941053 0.0432100000000001
0.04323 5.81152609607536 6.15084460203681 11.7509417488767 0.336929609840369 1.86646074544051 0.0432200000000001
0.04324 5.89623953043276 6.06830375273517 11.6746527314015 0.338512786245598 1.82314338125871 0.04323
0.04325 5.7581971949274 6.24650414841773 11.7269782454469 0.33579732935824 1.85090384909296 0.0432400000000001
0.04326 5.74609977513367 6.18110009909995 11.6498207776672 0.342254905190236 1.82524095915589 0.04325
0.04327 5.81835930700613 6.04353313016161 11.7220275531235 0.332134265009656 1.86294950361089 0.0432600000000001
0.04328 5.67948604237572 6.02790784552719 11.8064165546532 0.327488566878703 1.85940057746822 0.0432700000000001
0.04329 5.85050859613085 6.0893307388861 11.8372496035066 0.339094214658984 1.84493449944765 0.04328
0.0433 5.67372720345456 6.14866609647508 11.7349960885607 0.334945808994259 1.85903374643745 0.0432900000000001
0.04331 5.47737265101726 5.99559608103725 11.8387291268345 0.320296399547913 1.85223463177492 0.0433
0.04332 5.53908225135408 5.95565287907124 11.7862601244074 0.328402359897726 1.8436571794926 0.04331
0.04333 5.499180460436 6.02648912556062 11.8546107107385 0.324611304695882 1.84871304361361 0.0433200000000001
0.04334 5.63136109510472 6.07331402718347 11.8810558726577 0.326178909975824 1.85333091689387 0.04333
0.04335 5.64928246406167 6.0053656185267 11.7782470473592 0.32576304542988 1.85720995735203 0.0433400000000001
0.04336 5.54579252992853 6.09556563708516 11.9030859193994 0.325206988983139 1.86419127470652 0.0433500000000001
0.04337 5.63397410265721 6.08177587387215 11.8840312977974 0.321415971656827 1.85886792156982 0.04336
0.04338 5.69050486473471 6.09817054798916 11.7959123583053 0.332290978475998 1.84945068395584 0.0433700000000001
0.04339 5.63771571636424 6.13392931659971 11.791930533201 0.334739088862357 1.84990216785714 0.04338
0.0434 5.65070270491773 6.24648698612905 11.63395428365 0.333491264542608 1.84160346103704 0.04339
0.04341 5.69099025912942 6.16111945851917 11.8302171814351 0.339506949990388 1.85916514359541 0.0434000000000001
0.04342 5.83801179183556 6.45032886367643 11.570486149571 0.343788343509266 1.86522446873867 0.04341
0.04343 5.86663554638141 6.2658062180982 11.732285885819 0.338275789674242 1.86623993818548 0.0434200000000001
0.04344 5.68888622426378 6.14012116021018 11.7672246423946 0.328247184478904 1.85946097981852 0.0434300000000001
0.04345 5.78990191395714 6.26760116177956 11.726123881255 0.334124417893505 1.88632462924188 0.04344
0.04346 5.71384637853011 6.09669970142837 11.8581206113382 0.336678225500473 1.86882985519733 0.0434500000000001
0.04347 5.8222013543592 6.05843992084835 11.7632261020358 0.332351176187517 1.85462116672133 0.04346
0.04348 5.70370625764845 6.00698367294467 11.9252925705649 0.328690396171353 1.85272016336431 0.04347
0.04349 5.63224784788407 6.15128811954482 11.8424868166247 0.333936937518079 1.85107334156823 0.0434800000000001
0.0435 5.73759609784069 6.05798961890396 11.8255507111391 0.331633751020582 1.86092109852684 0.04349
0.04351 5.69253656017417 5.92332089634813 11.9722649022458 0.320122399419525 1.87841681333118 0.0435000000000001
0.04352 5.65916962791726 5.90652993558149 11.9745470211858 0.32151610642613 1.87325149360216 0.04351
0.04353 5.52317672878231 6.13515695749456 11.9438279838068 0.327161524303433 1.88767397540196 0.04352
0.04354 5.52502852438033 5.92746784055904 12.0095396357459 0.322897484735671 1.88370119318851 0.0435300000000001
0.04355 5.67873824616007 5.73098975583429 12.0365244908544 0.322601535761126 1.88677628862321 0.04354
0.04356 5.74430639266102 5.89661320280753 12.0319965397995 0.326786704266293 1.90196171030236 0.0435500000000001
0.04357 5.68778983047309 6.05804833117 12.035689210959 0.323273922626046 1.87473602935057 0.0435600000000001
0.04358 5.70716506521191 6.01979174029708 11.8296682618524 0.333740564735442 1.84352799926884 0.04357
0.04359 5.62221055046302 6.16457720950873 11.8235077952201 0.323730928600131 1.87683224539356 0.0435800000000001
0.0436 5.6120779930585 6.27014169329599 11.8854278359538 0.335850974421112 1.88545740641142 0.04359
0.04361 5.70276951399959 6.12603646571063 11.833156524557 0.333460132510869 1.86420868182237 0.0436
0.04362 5.85728201028009 6.15099427955861 11.8037784090797 0.33682212919908 1.87211947152805 0.0436100000000001
0.04363 6.02247454114529 6.00176265158531 11.8535510633169 0.335193339369948 1.86329487417527 0.04362
0.04364 5.76581099041376 6.21453268771448 11.7909786638833 0.334308086279388 1.87520749207061 0.0436300000000001
0.04365 5.90675945497435 6.22352871377886 11.6530863042025 0.346037365371222 1.84566633911841 0.0436400000000001
0.04366 5.92213352325674 6.29819975357587 11.7645736108943 0.34440927491151 1.85703546071668 0.04365
0.04367 6.01098385083372 6.27281606459551 11.6812364699002 0.346978031023152 1.83934120808221 0.0436600000000001
0.04368 5.98898276815055 6.381945005166 11.6971561915991 0.34769087775731 1.86139954354703 0.04367
0.04369 5.8151277911861 6.26561619009722 11.7719661878415 0.335643265970113 1.86387636432746 0.04368
0.0437 5.90619285816293 6.25025237667379 11.8396799141447 0.349142368089986 1.8634218414461 0.0436900000000001
0.04371 5.6126527230608 6.20083633925631 11.8825067536339 0.334632071835501 1.87733074733634 0.0437
0.04372 5.66972169409156 5.9777460347416 11.9849474698879 0.333081173836588 1.87779815391496 0.0437100000000001
0.04373 5.71721357854773 6.02369346415257 11.959837850029 0.331180760679306 1.88354241356332 0.0437200000000001
0.04374 5.45983570322589 6.03138221601838 12.1866472889814 0.329066636865195 1.89003203464632 0.04373
0.04375 5.5911168236038 5.86844651069281 12.1212754392772 0.318006133093037 1.89955205289293 0.0437400000000001
0.04376 5.62349326562088 5.89117663914188 12.1630839867356 0.326995690999074 1.88740820359228 0.04375
0.04377 5.48346520303705 6.16562038178147 12.1250646912316 0.327707841495264 1.88972629970859 0.04376
0.04378 5.49655207128082 6.10784999309685 12.0239099180139 0.321105118347466 1.8914730084598 0.0437700000000001
0.04379 5.58087474105037 6.02300345455649 12.0206882091125 0.327294998119474 1.87544904301353 0.04378
0.0438 5.64285164233981 6.03439934964009 11.9341405870474 0.328450473366825 1.87715214596985 0.0437900000000001
0.04381 5.80147582651284 6.13806964360706 11.9742706620612 0.333399699145849 1.89560524102509 0.0438000000000001
0.04382 5.71576194568041 6.10348429752531 11.9850129791945 0.33648866527751 1.87784119013434 0.04381
0.04383 5.67883764000044 6.31664500490926 11.9568895803667 0.335802195276113 1.87548201056319 0.0438200000000001
0.04384 5.88527157034781 6.18946695048412 11.8445837404365 0.338132829985629 1.88006843657284 0.04383
0.04385 5.99420486833409 6.13996254921182 11.8621053463982 0.338518228576855 1.88384999100428 0.0438400000000001
0.04386 5.90536626394504 6.43450653638259 11.8032928604305 0.349302427014227 1.85907876968994 0.0438500000000001
0.04387 5.92157144130175 6.62469639268772 11.6627768416878 0.353468325666217 1.85535629290442 0.04386
0.04388 6.04286574132909 6.43154243750872 11.7116898779794 0.352059193730842 1.88784057590444 0.0438700000000001
0.04389 6.11295428594852 6.47162624791704 11.7384057860096 0.352087386087736 1.88032884399745 0.0438800000000001
0.0439 5.81892454741239 6.34703444891342 11.8563225401436 0.336723934158588 1.88873070193907 0.04389
0.04391 5.84380054293544 6.25067790497806 11.8846184677355 0.334833129992784 1.87968957885613 0.0439000000000001
0.04392 6.12957305684576 6.31700154455536 11.8547797140867 0.350454420869649 1.86963692006007 0.04391
0.04393 5.9209097930363 6.48535607578559 11.8164656621672 0.347432984743403 1.87610477578049 0.04392
0.04394 5.78632667347508 6.15988220338003 11.9705540372135 0.331433935011406 1.89526374452028 0.0439300000000001
0.04395 5.8865096161245 6.34255108056186 11.8708111525471 0.346078656177703 1.87318281283704 0.04394
0.04396 5.89644538528816 6.20592601212237 11.9142434522723 0.3411326136912 1.86398949881758 0.0439500000000001
0.04397 5.6211274177204 6.04676432293089 12.0323862606314 0.328710528144394 1.8787212332355 0.04396
0.04398 5.43589087059774 6.12725781057472 12.0284648533605 0.322822013373122 1.88691588826987 0.04397
0.04399 5.47203767330785 6.06288736456902 12.1905501446574 0.321663988828125 1.91215249547725 0.0439800000000001
0.044 5.62686933447254 6.15059268677896 12.0977165935023 0.333653320254157 1.87668112436489 0.04399
0.04401 5.40742804616475 6.08893038537878 11.9916225327307 0.325095779564827 1.8861560309999 0.0440000000000001
0.04402 5.61178360650215 6.16149883953972 12.0660368597655 0.326837289546709 1.91885927213102 0.0440100000000001
0.04403 5.53779806356056 6.05140965088552 12.23539112509 0.330781736928602 1.91167385319217 0.04402
0.04404 5.60322512183773 6.12175882656738 12.1182594607246 0.330733393717298 1.88258024019461 0.0440300000000001
0.04405 5.66734380026662 6.16945418446594 11.9756079546705 0.33604288996351 1.87275366254743 0.04404
0.04406 5.72599669286151 6.35275320273415 11.9621431309682 0.337983041546101 1.89027177712503 0.04405
0.04407 5.90870266435524 6.48471614042118 11.8264660593611 0.340519969621687 1.89841868705595 0.0440600000000001
0.04408 5.93494041844724 6.5290133709059 11.8481511132381 0.349574557509817 1.88564171560725 0.04407
0.04409 5.90155186113422 6.42969225736053 11.881144078567 0.347592476791172 1.86303025307328 0.0440800000000001
0.0441 6.00172202955078 6.53941934084564 11.7056924710775 0.351139600369959 1.87253184012486 0.0440900000000001
0.04411 6.0431201552043 6.38429642667586 11.7822366984518 0.348326169121275 1.88846527474275 0.0441
0.04412 6.19724906619284 6.41488727831975 11.8987837166974 0.352002421022802 1.88807715631584 0.0441100000000001
0.04413 6.0093433937834 6.32330922169854 11.791752757562 0.342346161369106 1.88803625720846 0.04412
0.04414 5.80977005908109 6.41173321629354 11.9394545428993 0.349678965843786 1.88820246361242 0.04413
0.04415 5.76504148228579 6.32146523416282 12.0272273213959 0.346134548847231 1.87306091246702 0.0441400000000001
0.04416 5.87687344281673 6.14691424620929 12.0724229619527 0.327136847603696 1.90668218152829 0.04415
0.04417 5.73927776388458 6.10650804850474 12.062273775238 0.332532206087191 1.8769375807353 0.0441600000000001
0.04418 5.61030163988653 6.17884625389623 12.1250090602848 0.332803875301308 1.89639729971553 0.0441700000000001
0.04419 5.66966370966945 6.11375195836526 12.0679591866064 0.331214797616106 1.88567334532025 0.04418
0.0442 5.52409935124836 6.30081829459663 12.1438325122419 0.332684863523792 1.9072850910787 0.0441900000000001
0.04421 5.48695815424674 6.14220373904687 12.1444201423302 0.323060595019083 1.90596211238648 0.0442
0.04422 5.51595003409663 6.08231443634134 12.1217034781759 0.329959221351134 1.90310436624285 0.04421
0.04423 5.54234968153128 6.00392713257285 12.2572996874041 0.322523923996734 1.90004092452557 0.0442200000000001
0.04424 5.50359800705881 6.13842986019562 12.1687157431102 0.329424286614727 1.91081301737999 0.04423
0.04425 5.69363285347461 5.95098975666751 12.0803335185299 0.327269668400763 1.91095948001217 0.0442400000000001
0.04426 5.79634685636181 6.24488437354605 12.0263557305589 0.33277084851487 1.90571257816051 0.0442500000000001
0.04427 5.90598525282982 6.59223065526307 12.0116741779695 0.348311377123211 1.90126604771665 0.04426
0.04428 6.10134287112059 6.36349888190442 11.8883541302052 0.352051696958895 1.89673138725021 0.0442700000000001
0.04429 6.14627141242014 6.40850552861365 11.8948812116027 0.358298142486868 1.88254940126987 0.04428
0.0443 6.05766315921745 6.44593016858968 11.8287759988071 0.348489314115398 1.8840440142751 0.0442900000000001
0.04431 6.088844693174 6.59828548234753 11.8385805574399 0.355914413977373 1.88435339542416 0.0443000000000001
0.04432 6.12775679402772 6.5211639622763 11.746040687399 0.357386925088953 1.85783138391893 0.04431
0.04433 6.13206527119761 6.62917101876278 11.7535140232609 0.361617412420142 1.85467627101271 0.0443200000000001
0.04434 6.09589587846506 6.5600536702804 11.7916666335776 0.352972229055719 1.87362246743607 0.04433
0.04435 5.98620808013775 6.4059179315853 11.7724745506927 0.345140743917093 1.87421980006926 0.04434
0.04436 5.82057723805127 6.35332421093008 11.990358939587 0.344448559408384 1.90858276278811 0.0443500000000001
0.04437 5.83143166860086 6.26320559704862 12.0541581716845 0.33696423096943 1.89699050429246 0.04436
0.04438 5.84767641110215 6.30453334473493 11.9465261084228 0.337434863204756 1.90154652072594 0.04437
0.04439 5.8817248394235 6.13808701443435 12.077973636472 0.335588174310296 1.91272307365371 0.0443800000000001
0.0444 5.56688481868593 6.00977331745704 12.2387630751595 0.329579259041848 1.89809410540099 0.04439
0.04441 5.65849365047006 6.09911677222258 12.1820046807883 0.326066502034077 1.88826808774009 0.0444000000000001
0.04442 5.68544284908713 6.19809729068177 12.1170957903725 0.328542378995164 1.9257520736844 0.04441
0.04443 5.50678459854881 5.94823172934823 12.2583664324793 0.31978736941818 1.91731094693038 0.04442
0.04444 5.46045881645336 6.11125058766428 12.3015619882118 0.326359907455067 1.92521234043217 0.0444300000000001
0.04445 5.65115147026404 6.0246504800798 12.256837497638 0.328747339465812 1.8915658314561 0.04444
0.04446 5.69613343424639 6.11514140596143 12.1118348885187 0.333000669012871 1.90186664943317 0.0444500000000001
0.04447 5.68037780560945 6.13257583478725 12.1099657262511 0.331400079878109 1.90962995379765 0.0444600000000001
0.04448 5.91421061850957 6.23154272118101 12.0205049829846 0.338248437677463 1.90167360916591 0.04447
0.04449 5.91205596630822 6.49587273334733 12.0201926628727 0.354590625320591 1.87777694688369 0.0444800000000001
0.0445 6.09280900131573 6.3821458515447 11.9832450193432 0.352474693313691 1.90110418718415 0.04449
0.04451 6.04579081865946 6.41064269721666 12.0044982615005 0.349089423583755 1.89505931486837 0.0445
0.04452 6.08343013731897 6.55905994369814 11.8511675349835 0.360332723565649 1.89333507667379 0.0445100000000001
0.04453 6.20190159779083 6.54872497265026 11.9708514546015 0.350042595347262 1.90461961585082 0.04452
0.04454 6.04389579033801 6.51553071421668 12.0177367816623 0.352891077240223 1.87867842897076 0.0445300000000001
0.04455 6.15185932957997 6.5984338914966 11.9790192910072 0.357764401429768 1.88596336293908 0.0445400000000001
0.04456 5.96506253222669 6.43106008023969 11.8339722290928 0.346869707079127 1.88179721869793 0.04455
0.04457 6.08951598141928 6.49772664871858 11.9460103611581 0.353217001942984 1.88546321431873 0.0445600000000001
0.04458 5.9487015581586 6.42500361583903 11.9538361679577 0.341606313857467 1.88873762387326 0.04457
0.04459 5.87640657636713 6.41748534915813 12.0246361865809 0.351638689735851 1.91222346338654 0.04458
0.0446 6.00386303631452 6.22141722511201 12.0441556968911 0.337175805131441 1.91483264304702 0.0445900000000001
0.04461 5.68943209123326 6.24488127496091 12.0915559266026 0.334180379639269 1.91490295211345 0.0446
0.04462 5.82324638083294 6.32075345113562 12.2430213972693 0.34389060105734 1.89904296369238 0.0446100000000001
0.04463 5.86357244397791 6.1047045494174 12.3194602247321 0.335250022084184 1.90884041968044 0.0446200000000001
0.04464 5.74088591523703 6.31594597245994 12.2218375297531 0.338686829779993 1.91058552803926 0.04463
0.04465 5.75131465284699 6.28374735975303 12.1374309569119 0.338074119465511 1.91739211443636 0.0446400000000001
0.04466 5.78185480335612 6.12647648373219 12.2397909312921 0.330198651964084 1.94941273783602 0.04465
0.04467 5.69363250659658 5.98588072169145 12.2919927887383 0.326952280991005 1.93384982479348 0.04466
0.04468 5.76704093734861 6.02470323154929 12.2410649655127 0.329149668239821 1.90804476720512 0.0446700000000001
0.04469 5.90205099595201 5.99090200525229 12.2163113026675 0.327756032776124 1.91562832471587 0.04468
0.0447 5.88461989859897 6.18081148960057 12.19101074565 0.33061122785537 1.90541740432209 0.0446900000000001
0.04471 5.87821447206036 6.2048512019898 12.1722865195061 0.345821035387465 1.89939676661028 0.0447000000000001
0.04472 6.0783945967445 6.41703277200633 12.0897742569781 0.352341657046532 1.91282778397614 0.04471
0.04473 6.27566558235497 6.44672036966631 11.9254923201715 0.360006340714178 1.88156594006648 0.0447200000000001
0.04474 6.23324422867405 6.65127488129345 11.9274568217042 0.352702182643163 1.92498766339729 0.04473
0.04475 6.32808336716551 6.56509453539905 11.9810359229995 0.361585843508435 1.91469642197841 0.0447400000000001
0.04476 6.23964550673392 6.48705669882602 12.000157334988 0.356336679232105 1.89163946412187 0.0447500000000001
0.04477 6.05564160992898 6.59977956552926 12.0484089724083 0.350980044271989 1.91541244803809 0.04476
0.04478 5.91656673780006 6.45826449594072 12.1504704132042 0.33943073286682 1.93668782303219 0.0447700000000001
0.04479 5.98052437168597 6.39123408875038 12.1151397604034 0.341881527408428 1.92489723523686 0.04478
0.0448 5.86697819523827 6.4443171929409 12.1659101130746 0.342759166509825 1.92091233121737 0.04479
0.04481 5.87230443556553 6.27746474980585 12.1066206180983 0.34004513983018 1.90745735211994 0.0448000000000001
0.04482 5.79736085215478 6.35191056726924 12.1388559643865 0.337916220217372 1.91206822271224 0.04481
0.04483 5.8865400982809 6.44405907996103 12.1219064966464 0.349624309376923 1.92130629187259 0.0448200000000001
0.04484 5.95864844018573 6.37198853398379 12.1725120910614 0.34540155017497 1.91607038908433 0.0448300000000001
0.04485 5.76739669551483 6.15647156159849 12.2393603544002 0.340785720350304 1.89341941299621 0.04484
0.04486 5.8284188045537 6.46646918796193 12.1197757666289 0.344734880778093 1.90516207964015 0.0448500000000001
0.04487 5.89836300155373 6.49541928107655 12.1675557368471 0.347336439149428 1.93256893421912 0.04486
0.04488 5.84272168243777 6.38334323680301 12.2204040352736 0.344132154573245 1.91883480661419 0.04487
0.04489 5.89198331268565 6.40348809089367 12.1256875956437 0.348388938408871 1.90773265260679 0.0448800000000001
0.0449 5.9483475858699 6.63125251509731 12.0007190116377 0.353911745485285 1.8944395505604 0.04489
0.04491 6.1093933443405 6.66460610631844 12.0028674167651 0.354163753892255 1.92343531640527 0.0449000000000001
0.04492 6.16030362234047 6.58901743075079 12.183753825327 0.355052269327039 1.92562173482148 0.0449100000000001
0.04493 6.23543208727979 6.56768408518216 11.9672130126699 0.371150528819445 1.87562253019659 0.04492
0.04494 6.28160627262818 6.64106728129247 12.0367461354184 0.363217982266517 1.89588063359194 0.0449300000000001
0.04495 5.94415841377677 6.72763091461653 12.0214879455326 0.359412454585994 1.8882801061231 0.04494
0.04496 6.08122179287727 6.60319076310714 12.0715014791823 0.356507401262819 1.92544054498223 0.04495
0.04497 5.95636092903208 6.30101697330066 12.0828726264027 0.341565039443085 1.93068253122331 0.0449600000000001
0.04498 5.90955172679738 6.35869825236553 12.1405874696768 0.337423884096818 1.93131374954401 0.04497
0.04499 5.87678045273827 6.43580445781151 12.175936936755 0.352142459576303 1.92083179688158 0.0449800000000001
0.045 5.91437269647065 6.41609857899034 12.291583939141 0.342347215366864 1.94297035109019 0.0449900000000001
0.04501 5.85034924673992 6.25058116849595 12.2107916252486 0.337881532695758 1.9138291123362 0.045
0.04502 5.91228907309535 6.45743485296621 12.1782507143533 0.346403256667995 1.92641642842997 0.0450100000000001
0.04503 6.13304754381185 6.31012244925025 12.2935509624706 0.343281793808207 1.93629047373178 0.04502
0.04504 5.88239170092041 6.26109345169159 12.31713182674 0.342877530541846 1.92877733510317 0.0450300000000001
0.04505 6.02036066809807 6.50809350137895 12.2119017399892 0.357020523811398 1.93551536054799 0.0450400000000001
0.04506 5.82119490545421 6.5768950654856 12.1535535267388 0.346600135251811 1.92380996176583 0.04505
0.04507 5.64283782355738 6.24504816213721 12.3918101422221 0.334397768963265 1.96090742709448 0.0450600000000001
0.04508 5.82301515871069 6.30260476624596 12.360832965362 0.344390346659356 1.94072440192082 0.0450700000000001
0.04509 5.73418952321271 6.38882772682633 12.4120706749781 0.335466763040332 1.93667747107946 0.04508
0.0451 5.8651811311928 6.48430097503843 12.1508222088114 0.342294254765259 1.92281315028645 0.0450900000000001
0.04511 6.19400943742475 6.54889043455787 12.0588877672667 0.358965255021097 1.93261357478717 0.0451
0.04512 6.31316325390034 6.73348733749746 12.0723391705307 0.373354642375713 1.89878438311067 0.04511
0.04513 6.35687514527141 6.8286347390925 11.9542657672679 0.36614189956974 1.90218616119728 0.0451200000000001
0.04514 6.14432390617297 6.63016188805635 12.0460045683017 0.360612798180478 1.91903136620201 0.04513
0.04515 6.18184754504391 6.57301300008981 12.1368967781491 0.356343600282438 1.92716811881099 0.0451400000000001
0.04516 6.22199792056146 6.68289505448873 12.0391527464599 0.366910544132546 1.91089533774691 0.04515
0.04517 6.11055764927733 6.70411208307791 12.0715797361593 0.356802337620916 1.92231971527156 0.04516
0.04518 6.06965399808068 6.7061806167202 12.1675214640172 0.357827442040784 1.93678208530925 0.0451700000000001
0.04519 5.95699399149739 6.76049462798235 12.1879042340405 0.357277390586087 1.92401395850099 0.04518
0.0452 6.13701447585571 6.58496672615419 12.1854429952596 0.358938407067062 1.91519379615151 0.0451900000000001
0.04521 5.90761645155997 6.59766095188551 12.1610468127859 0.349264077474584 1.92455095233263 0.0452000000000001
0.04522 5.89500989110997 6.56062135209511 12.1391862201394 0.35683321037678 1.94206145785164 0.04521
0.04523 6.06785720025623 6.43663096232891 12.3113583133365 0.353908746708531 1.94594974990458 0.0452200000000001
0.04524 5.95086699651712 6.33057401788136 12.2847177980625 0.345834990063904 1.93128456210146 0.04523
0.04525 5.92187433859824 6.34712972627472 12.3100620285514 0.352911305731204 1.92674342479091 0.04524
0.04526 5.82107767441516 6.38998586508893 12.4154977375309 0.343217679957215 1.94449624033707 0.0452500000000001
0.04527 5.84499098820275 6.3281968519594 12.3521264134983 0.340580953412701 1.94516384329882 0.04526
0.04528 5.81296938960737 6.47857976097119 12.3879556981727 0.34772671689675 1.93590476961785 0.0452700000000001
0.04529 5.77926074303337 6.31279640874009 12.3627193069794 0.331036841212886 1.93334969228116 0.0452800000000001
0.0453 5.88078995025831 6.25442858075998 12.3002999185749 0.340191803475948 1.9244763128725 0.04529
0.04531 6.01577348036542 6.44142734202015 12.353365573363 0.353233704840926 1.94380764780076 0.0453000000000001
0.04532 5.87194766964611 6.68190956182127 12.4011172388588 0.352553228584484 1.9497230381437 0.04531
0.04533 6.06811303466706 6.6372971105189 12.2354375257421 0.353807567953698 1.93185595189668 0.04532
0.04534 6.10556069438286 6.41524861292011 12.1695305631162 0.352188270261441 1.91778226535367 0.0453300000000001
0.04535 6.13027914836225 6.63639593297394 12.0953447953719 0.360933393929965 1.93185929022048 0.04534
0.04536 6.1796176501053 6.83278380028949 12.1553903013421 0.369277765487963 1.92160749974809 0.0453500000000001
0.04537 6.10788917249246 6.65026784573758 12.1815153032815 0.352126608714685 1.927058422917 0.0453600000000001
0.04538 6.15753199109194 6.81731969809025 12.3104760032712 0.370502332537712 1.9369172347567 0.04537
0.04539 6.29057106465133 6.74861688352464 12.0896094390303 0.368142701769962 1.92166037787607 0.0453800000000001
0.0454 6.14008894623776 6.52921705716638 12.1707138862997 0.350347136208034 1.93274123365528 0.04539
0.04541 6.07341496580574 6.58565880582256 12.2247804856436 0.35122281399431 1.93249146195359 0.0454
0.04542 6.02065133933866 6.5336665500126 12.1867568405718 0.346203386168539 1.94979124458048 0.0454100000000001
0.04543 6.20624699837765 6.57346877720228 12.2482633717948 0.358280708997028 1.94975648912466 0.04542
0.04544 6.14082748612951 6.59298621676332 12.2497686595958 0.354456588313601 1.9323166734758 0.0454300000000001
0.04545 5.90990979603029 6.63856876402037 12.2032425754534 0.345618326335843 1.95283762556367 0.04544
0.04546 6.12864158074657 6.49802047475618 12.3538373636349 0.351265018824934 1.97982402392397 0.04545
0.04547 5.97043211290168 6.4589526166808 12.3546451562488 0.353295113013589 1.93746871327787 0.0454600000000001
0.04548 6.00870346402593 6.55154080827843 12.2615837526185 0.354041294178458 1.93891233668874 0.04547
0.04549 5.98683385374209 6.39559245958663 12.2989518333984 0.353102582003461 1.94277713530069 0.0454800000000001
0.0455 6.05309296526643 6.40247968964406 12.4544390954861 0.346929886734422 1.95011908927881 0.0454900000000001
0.04551 6.10954009949367 6.5666392505168 12.2043986509204 0.36242461091759 1.92054457598002 0.0455
0.04552 5.89547749550342 6.4889940748141 12.2990565942916 0.341457363272345 1.95715779155981 0.0455100000000001
0.04553 5.91259333328778 6.53536872388604 12.3584436370993 0.337821853808895 1.98580138087834 0.04552
0.04554 6.09006339043862 6.56346730013819 12.188578375626 0.357452549898266 1.92857470966891 0.04553
0.04555 6.25086501642137 6.6128969306152 12.1840861751241 0.360675877383448 1.94507985759295 0.0455400000000001
0.04556 6.33114808253704 6.69459775530159 12.1395345545455 0.367790768700915 1.9348099141224 0.04555
0.04557 6.40844962473021 6.65262936139727 12.1489606478837 0.366442928657329 1.94023474240887 0.0455600000000001
0.04558 6.15309936127064 6.7940213971998 12.164342620587 0.36083271082994 1.94500947843784 0.0455700000000001
0.04559 6.2515709968799 6.58966131951638 12.2692699231269 0.356189835714462 1.93779550298851 0.04558
0.0456 6.30053664102587 6.69444527169423 12.1347004463894 0.36663064303721 1.91929043810787 0.0455900000000001
0.04561 6.22158024756909 6.72793472471705 12.284131653252 0.358763656319927 1.95312070701238 0.0456
0.04562 6.2305195766011 6.48963978476163 12.2879739131805 0.357639617019277 1.9522010624659 0.04561
0.04563 6.01403061522285 6.50370742927353 12.3138211405233 0.350468018881404 1.94566925205369 0.0456200000000001
0.04564 5.93272017894597 6.37946767154394 12.4938647855741 0.344190374077325 1.94848480121425 0.04563
0.04565 6.1345716763081 6.43760210152933 12.2295248010394 0.35101988268938 1.94267862708897 0.0456400000000001
0.04566 6.1015797395722 6.73837088756289 12.3265474612591 0.361019426157503 1.9660560471166 0.0456500000000001
0.04567 5.88319823980471 6.53547314176027 12.3495772676123 0.3506836851928 1.93075678236863 0.04566
0.04568 5.70707906549518 6.44625801018663 12.3761200973165 0.332420310310613 1.95748255482871 0.0456700000000001
0.04569 5.92818551966565 6.39274279458596 12.4518695410424 0.348834804903518 1.94841667715222 0.04568
0.0457 6.14779862457639 6.45648285170906 12.3981613924874 0.352819361144242 1.96076036015829 0.04569
0.04571 6.06617540338574 6.59001235650478 12.3609639530102 0.351010014758481 1.95863832656458 0.0457000000000001
0.04572 6.13976205509581 6.46737742929233 12.3524815660458 0.35522729071648 1.96250470533506 0.04571
0.04573 6.35988307439917 6.69463962438289 12.315658382613 0.367392844785303 1.9499176605609 0.0457200000000001
0.04574 6.17334053833027 6.73287246466257 12.2654113696112 0.363673175493423 1.95869652371831 0.0457300000000001
0.04575 6.00853563403776 6.52989554152306 12.3337235358642 0.349918400480378 1.94641761969191 0.04574
0.04576 6.27574768385488 6.67934893669286 12.1835102137065 0.365638778712144 1.93724110777896 0.0457500000000001
0.04577 6.27188827515233 6.54380421504569 12.3302470237271 0.363385178282613 1.95536409767105 0.04576
0.04578 6.15749080518574 6.52105620814031 12.3295104366075 0.351472539832102 1.93804708936509 0.0457700000000001
0.04579 6.02111521608694 6.66869472446702 12.2162472175895 0.352638094731508 1.93264221951977 0.0457800000000001
0.0458 6.12813539556365 6.63536715468609 12.1777368362086 0.360484929110206 1.93198983226216 0.04579
0.04581 6.12937896856555 6.77671789263234 12.2598510272286 0.358665772772701 1.9636321188443 0.0458000000000001
0.04582 6.22597871637128 6.6067914865095 12.3318307247796 0.361475630714689 1.94510263528505 0.0458100000000001
0.04583 6.09284446845158 6.51929259806444 12.2200557893702 0.352797231200392 1.9379521751212 0.04582
0.04584 6.06554530103289 6.5904405567794 12.413393592952 0.350758589111676 1.97012051139265 0.0458300000000001
0.04585 6.13487935024702 6.69983712842901 12.3521793277617 0.356353389011575 1.96709511434001 0.04584
0.04586 6.08253290836256 6.60419012996893 12.3860442971403 0.347953766806759 1.97148628209523 0.04585
0.04587 6.08952263631214 6.49512618806709 12.3603360424499 0.350463580481698 1.95170008507649 0.0458600000000001
0.04588 6.29956749309143 6.72487075127795 12.2774994278359 0.365358338432828 1.94934223588841 0.04587
0.04589 6.25995768141302 6.65375304854464 12.3602863927124 0.361824575655477 1.96502383260806 0.0458800000000001
0.0459 6.32727914659711 6.5840505390795 12.3156701803316 0.3618682648018 1.9576929147107 0.04589
0.04591 5.99843385615589 6.62499774542425 12.4799748477086 0.350688000385031 1.96132630952104 0.0459
0.04592 6.01065370491466 6.68059554125135 12.3786687385063 0.352976679010606 1.98163507411682 0.0459100000000001
0.04593 5.8943371080119 6.72447497094352 12.3845058913761 0.355693595277379 1.96204333077354 0.04592
0.04594 5.95325151598844 6.60363889715955 12.4275172447941 0.348620692050505 1.97478352453713 0.0459300000000001
0.04595 6.07382846535504 6.58631219667136 12.521940534146 0.352954995554557 1.96264441661593 0.0459400000000001
0.04596 6.25284570104323 6.78734345182201 12.3493899868111 0.369846468620226 1.95162691217342 0.04595
0.04597 6.1328205462112 6.64770458954356 12.3883645333556 0.363930871166083 1.95889599893981 0.0459600000000001
0.04598 6.28741022233165 6.62556741640079 12.276259689196 0.362588169442734 1.9427773784066 0.04597
0.04599 6.28665484348643 6.68218469218542 12.2841684869189 0.36041375831799 1.97387200508947 0.04598
0.046 6.33241532367159 6.67417172999989 12.3155209061655 0.370106462923943 1.95344875072779 0.0459900000000001
0.04601 6.35514522440378 6.60062923964448 12.265372231857 0.36263108220823 1.95561605687326 0.046
0.04602 6.02662380947502 6.50454933829919 12.4813982455993 0.346774260452776 1.97373917230671 0.0460100000000001
0.04603 5.96217650516167 6.67566789893426 12.3878751356966 0.353220953990955 1.96092193889132 0.0460200000000001
0.04604 6.0542303215668 6.67000079473669 12.3124932893389 0.355896929105551 1.95532548152725 0.04603
0.04605 6.12978578150115 6.74435404177615 12.3840139763824 0.363021209874721 1.96158359141147 0.0460400000000001
0.04606 5.89568571012364 6.56053799290958 12.4509923272335 0.352269916686094 1.97116644914363 0.04605
0.04607 6.06697341132507 6.60924895365273 12.5298507573089 0.362436464000803 1.95335816808931 0.04606
0.04608 6.25179713047219 6.74706857044473 12.4268637943757 0.368946260482197 1.95392547616886 0.0460700000000001
0.04609 6.23258352851697 6.65919793209107 12.3191164175321 0.363842674000421 1.95474579703509 0.04608
0.0461 6.17094695153361 6.71706239361305 12.3357788858274 0.358207014505508 1.98304984497653 0.0460900000000001
0.04611 6.28993881229045 6.77634831968019 12.517081682506 0.369016994434755 1.96948140722466 0.0461000000000001
0.04612 6.10101778454722 6.62661176770843 12.3871818380509 0.358291781309388 1.95527232403297 0.04611
0.04613 6.09483496346356 6.673386528317 12.3884851478263 0.355259255256486 1.96034614468527 0.0461200000000001
0.04614 6.03011674025478 6.83884411849187 12.3481055970602 0.364332381878685 1.95872392855564 0.04613
0.04615 6.00050822016116 6.92580302289035 12.3244209054675 0.366584706878655 1.95613692209957 0.04614
0.04616 6.31747167184533 6.87171282782331 12.3475281858817 0.373155748530631 1.95153549647689 0.0461500000000001
0.04617 6.24520703517268 6.84507051884371 12.2469507756488 0.363074938771192 1.96003261787416 0.04616
0.04618 6.41597858196345 6.99969657415011 12.2238985880311 0.382101191902565 1.95997834923597 0.0461700000000001
0.04619 6.54881898007935 6.89926666837794 12.1030435970488 0.378028204146614 1.95073207379899 0.0461800000000001
0.0462 6.46035269291854 6.86239462944665 12.2148944970984 0.371305750180338 1.94855434010193 0.04619
0.04621 6.53470167303108 6.73245234046486 12.3875317636448 0.377367653870175 1.96357648060005 0.0462000000000001
0.04622 6.48713349986625 6.76212108068294 12.3596464540686 0.372120378910627 1.94987961107596 0.04621
0.04623 6.27853388295838 6.86869861049481 12.2687543534922 0.365776733330937 1.94044657957086 0.0462200000000001
0.04624 6.07868910744884 6.91781313270541 12.3528263625764 0.364314271929974 1.96764969426241 0.0462300000000001
0.04625 6.14086390242053 6.75425873688057 12.4422904874332 0.36723164223775 1.95425055556506 0.04624
0.04626 6.08195414069084 6.59371857728236 12.5028722275202 0.353534062948967 1.98207664091197 0.0462500000000001
0.04627 5.9471935062942 6.61773445493904 12.453137829986 0.35770388294742 1.9708123832804 0.0462600000000001
0.04628 6.06181510191344 6.84323711319989 12.401447144977 0.364479821208418 1.98615969380541 0.04627
0.04629 6.20208413687902 6.49429771990958 12.5686015895738 0.360016845273571 1.9916161337732 0.0462800000000001
0.0463 5.91559413653928 6.40758398906349 12.7005433291379 0.34139888860669 1.97996673516953 0.04629
0.04631 5.84039593791099 6.38575556709674 12.5977295279894 0.344569207629683 1.97225398439275 0.0463000000000001
0.04632 6.0308816860933 6.37938901421961 12.6177381199288 0.345160428834652 1.9901760435246 0.0463100000000001
0.04633 5.95485717947147 6.51598835209754 12.7187816109807 0.35432615920282 1.98255686861096 0.04632
0.04634 5.95730266017989 6.64991805873973 12.5841552070521 0.351826587376562 1.98784796673649 0.0463300000000001
0.04635 6.08157899704973 6.71281467459945 12.4374996421356 0.363720244447859 1.96959326437552 0.04634
0.04636 6.11269638402204 6.72052209759678 12.3995675074183 0.360094917265875 1.97771266794013 0.04635
0.04637 6.36639134328607 6.76391915939762 12.4364866018352 0.372562255874878 1.97516776224055 0.0463600000000001
0.04638 6.48132342346273 6.81260850071018 12.2862949236921 0.378005618160042 1.94177328350607 0.04637
0.04639 6.43248777802401 7.06510919724567 12.2210783715462 0.374841466979161 1.95244593782636 0.0463800000000001
0.0464 6.7029581170435 7.20577427048082 12.0660965055588 0.379536323426318 1.96641678863401 0.0463900000000001
0.04641 6.79800161104921 7.16993306074226 12.1951934744392 0.38922221582245 1.96927354899173 0.0464
0.04642 6.52589866551807 6.86163224787139 12.225719171071 0.37807036730866 1.93956840548604 0.0464100000000001
0.04643 6.64441631644486 6.9881871169135 12.1990612080113 0.379819000703574 1.94794110579989 0.04642
0.04644 6.70322945481805 7.15167047687632 12.2325865278429 0.392269834629089 1.94876091097777 0.04643
0.04645 6.49942942659342 7.1195878633923 12.2543299290238 0.379707697578273 1.97625819328657 0.0464400000000001
0.04646 6.48673146458415 6.94270115613425 12.3820591613103 0.374616957398783 1.96680364446716 0.04645
0.04647 6.25881850396004 6.92919551374419 12.3919539758802 0.367467797585406 1.97114577914219 0.0464600000000001
0.04648 6.25041890477643 6.7980578011877 12.526902718973 0.366841646611612 2.00239959649062 0.0464700000000001
0.04649 6.29792068162181 6.51045609635069 12.6122348026629 0.353642103332365 2.00422118737404 0.04648
0.0465 6.00485262938875 6.566754315425 12.5650078551182 0.352389172781877 1.97583311918168 0.0464900000000001
0.04651 5.90396445228251 6.59279531279094 12.7378483578714 0.347840114945139 2.0072220593365 0.0465
0.04652 6.024405394578 6.30880456059053 12.775608387991 0.346620329378926 2.00603149065277 0.0465100000000001
0.04653 6.06634153467413 6.43038148585325 12.6502057175502 0.347340984328517 1.98908813797639 0.0465200000000001
0.04654 6.01505055150148 6.60653129706473 12.6344238999741 0.353690402227705 1.99899476471197 0.04653
0.04655 5.92346053890032 6.37837334542384 12.8612651046008 0.342312271304664 2.00481646264697 0.0465400000000001
0.04656 5.88613627504077 6.54361910156873 12.7824323264093 0.351264777628539 1.9792384858846 0.0465500000000001
0.04657 6.07064309053518 6.64322469100159 12.5806082546363 0.34827821786117 1.97681724031799 0.04656
0.04658 6.12034862285512 6.59736593375078 12.6397514997108 0.358253632035648 1.99528040450705 0.0465700000000001
0.04659 6.34278677407247 6.57156894144537 12.5375572566862 0.361151465096318 1.98537330942797 0.04658
0.0466 6.19326920544261 6.76998979179575 12.5306395059665 0.364863730874595 1.99476063961897 0.04659
0.04661 6.32594382382169 6.95306375237501 12.3420083469214 0.376071133471188 1.97967833542264 0.0466000000000001
0.04662 6.42461805074288 6.92891346700814 12.4660766429422 0.380032771090951 1.97680877776575 0.04661
0.04663 6.41829316194558 6.9526711229991 12.3747980088242 0.377366993946359 1.96966159731036 0.0466200000000001
0.04664 6.68651127126831 6.9278830653513 12.3101845390356 0.380002864411978 1.96278211389604 0.0466300000000001
0.04665 6.36244445536815 7.11157367762435 12.2627182728225 0.382151269046917 1.95267871523253 0.04664
0.04666 6.45381594848916 7.0626411447411 12.3264342186333 0.375436054581922 1.99633807371423 0.0466500000000001
0.04667 6.59935710658444 6.89503118239094 12.3246615830615 0.38195286951286 1.97484343918273 0.04666
0.04668 6.65151561897321 7.2174774758124 12.3524385238934 0.390772091253079 1.96508618836487 0.0466700000000001
0.04669 6.53941015947548 6.96830174313407 12.2691269481459 0.379175015681952 1.970451248307 0.0466800000000001
0.0467 6.56116059916792 6.91153957139393 12.2753228371187 0.379847616168693 1.98199856331463 0.04669
0.04671 6.51126184350035 6.95699097205285 12.3741586645733 0.377083739784725 1.98659531074972 0.0467000000000001
0.04672 6.2944369490052 6.76176694929752 12.5436779708078 0.368903287322136 1.98333409478038 0.0467100000000001
0.04673 6.2794048510651 6.56370544952555 12.5899174699506 0.358906072645478 1.98265488588295 0.04672
0.04674 6.18128676838143 6.75017503041322 12.6661934645146 0.359667992775255 2.00628957798691 0.0467300000000001
0.04675 6.04199375523027 6.76210949201569 12.7393861901716 0.359689609854045 2.01841970458363 0.04674
0.04676 5.87843530789129 6.66224920909989 12.7489890222802 0.350673328714847 2.00172329478935 0.0467500000000001
0.04677 5.80602149159325 6.6374868289183 12.6660492741727 0.348627499153925 1.9942313777481 0.0467600000000001
0.04678 6.03955834989467 6.76322908146519 12.7217021317446 0.354606458962594 2.00888329410377 0.04677
0.04679 6.28670517818603 6.75386675741175 12.6726366540145 0.36724645769586 2.0048969622592 0.0467800000000001
0.0468 5.9523205484689 6.73699435295003 12.6540253131812 0.359616430973835 1.99841968029366 0.04679
0.04681 6.25871526516646 6.83677016904969 12.5303649329081 0.366432201115935 1.99652938887962 0.0468
0.04682 6.58527265278973 6.90565694345767 12.4587903104651 0.382013198214484 1.97391837219864 0.0468100000000001
0.04683 6.50766216505233 6.80094626613384 12.4794408625279 0.371308324627534 2.00242621812611 0.04682
0.04684 6.5128469014882 6.7889227682607 12.3855830450538 0.368260593848435 1.99026601902058 0.0468300000000001
0.04685 6.48136800989392 6.77607391891832 12.4173238743723 0.379611142026621 1.95664980361181 0.0468400000000001
0.04686 6.68882909810743 6.93104653295363 12.3906017178159 0.383669287702928 1.97860017186162 0.04685
0.04687 6.47082052133766 6.82910713647152 12.4792398045081 0.375624577395946 1.97418515158229 0.0468600000000001
0.04688 6.47435446930575 7.10452118628024 12.3944333267169 0.378614092955736 1.97668099875065 0.04687
0.04689 6.62317619364711 6.89068780366552 12.6060419402193 0.376539619609706 1.99203682289615 0.04688
0.0469 6.59803935171242 7.04682852935147 12.4676572285291 0.387516154753353 1.97060386704095 0.0468900000000001
0.04691 6.16092797092082 6.90479781084227 12.5958449729194 0.36933135136899 1.9897116530478 0.0469
0.04692 6.2782527923931 6.49776194997739 12.6351794446904 0.351559859217387 2.01460068120358 0.0469100000000001
0.04693 6.07113708680711 6.78988161728144 12.6718728437115 0.361672312520785 1.99902696933945 0.0469200000000001
0.04694 6.03270300750032 6.59230414190027 12.7081648248235 0.354423550649474 1.9926210500116 0.04693
0.04695 6.13271336356292 6.75028333821221 12.6828216374002 0.363679852420053 2.00271935486724 0.0469400000000001
0.04696 6.18068266982827 6.76143223175427 12.7335294998157 0.364220987053921 2.00108750276982 0.04695
0.04697 6.25403276127096 6.67859230753899 12.7276988184061 0.352121706640471 2.02291478594287 0.0469600000000001
0.04698 6.09456200068826 6.77052872912172 12.5533860546877 0.364687732574531 1.99029324940084 0.0469700000000001
0.04699 6.14997199237247 6.69300939992083 12.6743748329691 0.358670888537516 2.02010802774421 0.04698
0.047 6.13745606279352 6.63777640025264 12.687185941237 0.360787729783666 2.00950993020628 0.0469900000000001
0.04701 6.35732081558305 6.85293025105736 12.5216957525366 0.369917953461214 2.00183238934905 0.047
0.04702 6.56820690206079 6.8681786165789 12.5453519845703 0.377169205337439 1.97552887870748 0.04701
0.04703 6.46086081690755 7.02949528627481 12.4716470612538 0.376918990970236 1.97558250350543 0.0470200000000001
0.04704 6.61127726532743 7.20357510622006 12.4417537326396 0.38526643273275 2.00273736761743 0.04703
0.04705 6.75083646877157 7.05715358323296 12.3040878756424 0.389186951713998 1.98766572419273 0.04704
0.04706 6.77243887100685 7.10615640322175 12.5108444813667 0.39530539929625 2.00064811482882 0.0470500000000001
0.04707 6.50253896250789 7.08150607119784 12.4217630783157 0.380445341589995 1.96897813401323 0.04706
0.04708 6.57592156374113 7.05365002968204 12.2630805307124 0.380962107268882 1.97411635261978 0.0470700000000001
0.04709 6.61942572767045 7.0159993658239 12.3784705016007 0.380952575152579 2.012023620146 0.04708
0.0471 6.35296572951493 6.90289295780222 12.5676103522122 0.371830901020811 1.99428298803503 0.04709
0.04711 6.27828957547973 6.74698631674655 12.6754440633313 0.368617870031252 2.00054138921967 0.0471000000000001
0.04712 6.32531907205261 6.76395239214971 12.7615992967173 0.364650756518893 2.01127789057507 0.04711
0.04713 6.37082277969183 6.92108691698094 12.5972150012298 0.372517169877942 1.99664836455816 0.0471200000000001
0.04714 6.23017115280572 6.95056442426987 12.6625960113115 0.375095321319564 2.02421959890383 0.0471300000000001
0.04715 6.16990422021035 6.65882402552375 12.7574487438023 0.364252156723394 1.99899223726097 0.04714
0.04716 6.32563875104959 6.7215114311482 12.7344700246801 0.361107230344906 2.00778346337938 0.0471500000000001
0.04717 6.01965550945366 6.45491603792866 12.854788858661 0.350594490881857 2.01063151981279 0.04716
0.04718 5.9584190130623 6.53190964650967 12.7929748823601 0.34860449281667 2.017989632172 0.04717
0.04719 6.03796386509861 6.52917550264039 12.7783014744964 0.351040987179815 2.00839985927517 0.0471800000000001
0.0472 6.20381743614659 6.73622790205277 12.6656735506897 0.363481357563699 2.01419161927525 0.04719
0.04721 6.34870080299132 6.79737220478742 12.688633492585 0.37113455056 2.02704090128576 0.0472000000000001
0.04722 6.54155243742003 6.68023583201904 12.6759982665538 0.374221394869675 2.0006746232981 0.0472100000000001
0.04723 6.50713981508677 6.96411043447575 12.6018341861386 0.377661706752792 2.00447819622752 0.04722
0.04724 6.32570918479385 6.94124862161784 12.6108442154865 0.372556113357476 1.97843532969541 0.0472300000000001
0.04725 6.64852286084679 7.07259694389967 12.3972101384955 0.386831165898086 1.96898280673596 0.04724
0.04726 6.59771934928608 7.10831652532702 12.3996117907787 0.385935931418203 1.98144179850198 0.04725
0.04727 6.68999934940722 7.27594578866393 12.3556278812108 0.391167122300334 1.99491178641447 0.0472600000000001
0.04728 6.70391280267757 7.15176917626016 12.4232194009131 0.389248326633287 1.97159791487196 0.04727
0.04729 6.54343015055626 7.14295608062526 12.418503759552 0.382573685724292 1.98544034545551 0.0472800000000001
0.0473 6.61092499623542 7.16140989130086 12.444318065532 0.383437127172091 1.97877381719067 0.0472900000000001
0.04731 6.22842625448856 7.16103907455662 12.5739519297563 0.376479187563811 2.01537160818611 0.0473
0.04732 6.35031108166202 7.0536161271872 12.614952674667 0.374614774140805 2.00715553229614 0.0473100000000001
0.04733 6.42702136021359 7.16115610678185 12.5261978967511 0.383268960010856 2.00502798253124 0.04732
0.04734 6.50631864126527 6.96655786443768 12.5792464816144 0.379192459594343 1.99674579643395 0.04733
0.04735 6.48072904194754 6.96791640195839 12.5074934988135 0.377090024932443 1.97220640632676 0.0473400000000001
0.04736 6.52794649863718 7.01024307266088 12.4799480385275 0.375903631284292 2.0079006581024 0.04735
0.04737 6.46529985566647 6.86497291903734 12.6596557392812 0.374435188838017 2.01297084313964 0.0473600000000001
0.04738 6.17720866722902 6.83814994343174 12.835086530226 0.360271447346914 2.04183086988352 0.0473700000000001
0.04739 6.11573109411188 6.69473111065248 12.8583241360957 0.362792110209691 2.01945177646765 0.04738
0.0474 6.14412674544671 6.83375104451656 12.8306533062897 0.368582755301095 2.01505621805432 0.0473900000000001
0.04741 6.28410317772015 6.88276817244057 12.8105652732265 0.368620542137577 2.03310006347972 0.0474
0.04742 6.2024582581787 6.82669896366669 12.8052901251789 0.358367164165876 2.04078145406664 0.0474100000000001
0.04743 6.28422495731616 6.7990519452113 12.7656312298629 0.367078190103321 2.02335097602481 0.0474200000000001
0.04744 6.38775826022743 6.82414566022599 12.739107995213 0.369336418097937 2.02786109890719 0.04743
0.04745 6.57867151280093 6.82634183009722 12.7326425443019 0.383182334836712 1.99604677947041 0.0474400000000001
0.04746 6.53074225327768 6.95536707294202 12.592755232958 0.384048503138677 1.99637629545735 0.04745
0.04747 6.61314300284077 6.95624625583986 12.6452137265397 0.370825762829752 2.03205688149869 0.04746
0.04748 6.43183001890394 6.90299001305423 12.7218085425312 0.374250214257839 2.01349847855355 0.0474700000000001
0.04749 6.57934397517531 6.90135587297534 12.6484287406941 0.379024404270144 2.00482655798484 0.04748
0.0475 6.43262298407561 7.10660364535717 12.583723780751 0.374923539661585 2.00620858340671 0.0474900000000001
0.04751 6.52073661900385 7.13619288877384 12.5215876109776 0.382322910168298 2.00955411957701 0.0475000000000001
0.04752 6.80763823513969 7.03193316867089 12.6088381126132 0.386906171508008 1.99719468346976 0.04751
0.04753 6.57547528621294 6.92646984585092 12.6756567462357 0.379984369225005 1.99826994748058 0.0475200000000001
0.04754 6.65032473979909 7.11951962393798 12.5785062393699 0.385196944682858 2.00739797434372 0.04753
0.04755 6.3939263611482 7.03045077352062 12.7107694507889 0.380898799857928 2.01754558650753 0.04754
0.04756 6.66638449161001 6.97500777144802 12.7222893467457 0.387544112042934 2.0158649776293 0.0475500000000001
0.04757 6.60197609546798 6.99277633748048 12.614773117559 0.381596043261987 1.9898457059846 0.04756
0.04758 6.10998610673377 7.0198069120576 12.6766977505745 0.362949272293616 2.02225719392425 0.0475700000000001
0.04759 6.2707962168099 7.13262448471569 12.7453898002244 0.38337145767259 2.01981551887631 0.0475800000000001
0.0476 6.30288008915568 7.01161830120676 12.6816011449666 0.369564092072882 2.00961870132761 0.04759
0.04761 6.16491356067886 6.96714291810581 12.6650589671167 0.363362349303607 2.0139169547283 0.0476000000000001
0.04762 6.26055001212272 7.09782715462531 12.7795257582316 0.381425767229439 2.0198829976894 0.04761
0.04763 6.63915818371509 7.07720930638238 12.5658581979936 0.389387199546789 2.0059283619484 0.04762
0.04764 6.41186267377989 7.05953773234099 12.6583121014443 0.381781156340827 2.01718684035657 0.0476300000000001
0.04765 6.56679518791863 7.11722959817779 12.724741034793 0.384023229618428 2.00964509823252 0.04764
0.04766 6.73015986161169 7.21111005750817 12.4601275039466 0.387892703332742 2.00740817039512 0.0476500000000001
0.04767 6.58027184279165 7.18765982122182 12.5275805409593 0.391938504738167 2.01250214916799 0.0476600000000001
0.04768 6.39084884618766 6.86748790237033 12.8572767407525 0.370240309920396 2.02612114834678 0.04767
0.04769 6.69047085788719 7.1445761451138 12.5735439208742 0.390560739487388 1.99656417775085 0.0476800000000001
0.0477 6.4904527845843 7.1239566549458 12.6372251226357 0.385506857677512 2.00493248112749 0.04769
0.04771 6.49667480020084 6.91194983183044 12.7167316078399 0.377767749133087 2.01570785366695 0.0477000000000001
0.04772 6.64999092061793 7.07039385665616 12.7922471080546 0.380966676421098 2.04510384821386 0.0477100000000001
0.04773 6.67319900850484 7.01413838131745 12.749410946406 0.3910973214979 2.01767096151936 0.04772
0.04774 6.56335689033983 6.73388724038165 12.7898762072254 0.367954481887736 2.03269545151063 0.0477300000000001
0.04775 6.42845266359523 6.79370771926712 12.9101906007383 0.368339478652637 2.02597389069744 0.0477400000000001
0.04776 6.69710719794532 6.92646591753113 12.8645199630594 0.382039304476787 1.99965901203253 0.04775
0.04777 6.39706191420872 6.97766592977902 12.8115240876698 0.379968963991716 2.01366559449082 0.0477600000000001
0.04778 6.28254321728172 6.92508343201143 12.7748541929526 0.370676339927338 2.03126311792012 0.04777
0.04779 6.34988381134981 6.91527619570141 12.928936837789 0.373119447181587 2.060534574422 0.04778
0.0478 6.27349031912981 6.90740223998391 12.8772484311964 0.371571105964816 2.04343834788704 0.0477900000000001
0.04781 6.37047295807853 6.90884018819029 12.8077327213897 0.37264741876649 2.04783992017554 0.0478
0.04782 6.48490033390717 7.04337151673347 12.837398097317 0.37689005876488 2.03407199114563 0.0478100000000001
0.04783 6.44093227158512 7.09773779892686 12.7581576657804 0.38394936988491 2.00438864080321 0.04782
0.04784 6.30299406787216 7.02464946226286 12.8126259556588 0.37808860929181 2.03378066812338 0.04783
0.04785 6.47921798977409 7.13188268784009 12.6838340219739 0.376935741144611 2.02829336517788 0.0478400000000001
0.04786 6.52499042182857 7.13281119398105 12.6054578412924 0.381904513013769 1.99861109380604 0.04785
0.04787 6.678725643501 7.03837508890745 12.6379509203749 0.387302007082617 2.04296391535635 0.0478600000000001
0.04788 6.80569709270459 7.19661866082277 12.6198172528722 0.393947498243901 2.01294843206165 0.0478700000000001
0.04789 6.67629393296768 7.33848315764298 12.6165676932669 0.394781995261851 2.00628132733761 0.04788
0.0479 6.72802393111954 7.1429285013065 12.7337498674697 0.386770568332317 2.0514395311959 0.0478900000000001
0.04791 6.48154399004796 7.10030303284881 12.8177252084115 0.38071364755136 2.04753112805689 0.0479
0.04792 6.53252880023115 7.14553053629736 12.5830465641549 0.384566830825437 2.01497641770496 0.04791
0.04793 6.60952194822736 7.11651597710559 12.6938577205688 0.391411240150575 2.01328440606783 0.0479200000000001
0.04794 6.55880370393351 7.21111689231325 12.7477656213026 0.38689496689247 2.0364107405836 0.04793
0.04795 6.50130415443328 7.14495452959958 12.8594412430702 0.38257361567828 2.01993235179117 0.0479400000000001
0.04796 6.59650016390768 7.09987273458864 12.6924991289294 0.385389537065784 2.02602879382615 0.0479500000000001
0.04797 6.66778496494229 7.08012362630807 12.7593450329467 0.383337887968405 2.01907683489801 0.04796
0.04798 6.46039632251613 6.97132272960925 12.8774098184117 0.381257318094611 2.02232227692117 0.0479700000000001
0.04799 6.45437570937933 6.81170682722357 12.7716227158619 0.370916722660646 2.01875299715986 0.04798
0.048 6.70119601931976 7.04463718547081 12.8648081548675 0.389286597046208 2.04052295775319 0.04799
0.04801 6.61812712594162 6.98569917359795 12.8415354155814 0.377060670745596 2.04304284005657 0.0480000000000001
0.04802 6.45951165527578 6.92734055916421 12.8624828514229 0.376251991888259 2.0360650127668 0.04801
0.04803 6.45581377396577 7.02684146789634 12.7127595135886 0.381008097218083 2.03588052122277 0.0480200000000001
0.04804 6.7110353060215 7.0582203730321 12.8108596512125 0.385960363235567 2.03397627888357 0.0480300000000001
0.04805 6.58530228392415 6.99203954879329 12.8181568887767 0.382555744591351 2.04163315143931 0.04804
0.04806 6.48838808062569 7.15612214040942 12.6883948289289 0.382414229006521 2.02667058262165 0.0480500000000001
0.04807 6.56355433204241 6.98147111975919 12.8086175957158 0.379160181665896 2.03457140464755 0.04806
0.04808 6.55735105539734 6.82013936661509 12.7539322223626 0.377364080522967 2.03888667540918 0.04807
0.04809 6.46596627933312 6.78193676952194 12.8915541060154 0.373136537239171 2.03768955052909 0.0480800000000001
0.0481 6.43277636314113 7.25275931078901 12.8012296493741 0.386709457012472 2.01948299397108 0.04809
0.04811 6.59692275434915 7.20042008337162 12.6894285843899 0.396160643889493 2.03174216755689 0.0481000000000001
0.04812 6.5202019781703 7.22457383384859 12.7938590163056 0.385374478215104 2.03629845811477 0.0481100000000001
0.04813 6.58789354346539 7.07220834585777 12.798497201973 0.381098605671775 2.0217629554389 0.04812
0.04814 6.68759639743327 7.16217405239875 12.7424020001868 0.385454281558345 2.03681978428093 0.0481300000000001
0.04815 6.55973424295215 7.19153281036876 12.8083266685995 0.384343278333515 2.04298402411409 0.04814
0.04816 6.59196368710622 7.09603244957452 12.8005911926191 0.382248861132405 2.04470397542725 0.0481500000000001
0.04817 6.57439586242301 7.24371395821829 12.7815997617906 0.387981440147975 2.03485018575213 0.0481600000000001
0.04818 6.79099062519973 7.08602347695874 12.84041598734 0.393146321932089 2.05698428582615 0.04817
0.04819 6.73394923646124 7.0632532956251 12.8131814766793 0.377275858365789 2.06718836220546 0.0481800000000001
0.0482 6.63500327090377 7.1371076997342 12.8512203523307 0.38146527707678 2.05063448560559 0.0481900000000001
0.04821 6.4710774435496 7.08818369707698 12.8213596181338 0.384039320839204 2.03581278320544 0.0482
0.04822 6.66662247992709 7.0548266361628 12.8204449504451 0.377403240862393 2.04263209297081 0.0482100000000001
0.04823 6.50923673619739 7.12237906702194 12.7823824409997 0.381325243164571 2.04059114674161 0.04822
0.04824 6.50513976315163 7.29175851295302 12.736981668693 0.380570061257144 2.04330263372657 0.0482300000000001
0.04825 6.54477709516144 7.3155691150558 12.696670962468 0.387835064445349 2.04935321593689 0.0482400000000001
0.04826 6.65527012894935 6.93118685769111 12.8577602180653 0.380586864540954 2.04592520599172 0.04825
0.04827 6.6931506697629 7.29201173828445 12.8742675247249 0.39418988987878 2.04763038222461 0.0482600000000001
0.04828 6.60788602741853 7.09309617802451 12.7247249094748 0.380841182372225 2.02813783643711 0.04827
0.04829 6.6293712982566 7.22786993052999 12.8442387330082 0.393154292338776 2.01987635857814 0.04828
0.0483 6.71455570550619 7.25802325263716 12.7942234511848 0.390698816519587 2.03295054575811 0.0482900000000001
0.04831 6.4196368048977 7.15847543111315 12.8143241473999 0.384231859422013 2.03593181115904 0.0483
0.04832 6.61437055826093 6.97167845070287 12.9228772596023 0.382432957655042 2.0544211209653 0.0483100000000001
0.04833 6.5815492963197 7.11329777950696 12.898950043742 0.380671400726196 2.04528325534217 0.0483200000000001
0.04834 6.48771929127648 7.40404471739111 12.833734974154 0.390391406960417 2.03442880669142 0.04833
0.04835 6.69135926853744 7.12586131626278 12.7345438008538 0.383655852705777 2.04850452532318 0.0483400000000001
0.04836 6.87141758563803 7.18462894097279 12.8682484385366 0.395171199023855 2.06490259630926 0.04835
0.04837 6.86778782684186 7.40812453759531 12.6981050231807 0.395566469291887 2.0417045264318 0.04836
0.04838 6.6691492461984 7.35856398417621 12.7194339491224 0.392953779591627 2.06224480442627 0.0483700000000001
0.04839 6.70474262571358 7.15073458889624 12.8729262247499 0.389580774705018 2.05691024308215 0.04838
0.0484 6.4932356426371 7.22863757074457 12.9169095420404 0.389242677075679 2.06321879117669 0.0483900000000001
0.04841 6.63624726258807 6.97861598376676 12.9156689000962 0.373939013013946 2.05554957457575 0.0484000000000001
0.04842 6.56863450103396 7.12148040693442 12.8319569059453 0.382812120235376 2.04466400551767 0.04841
0.04843 6.58416576283899 7.11654734545193 12.9284738281991 0.389359992787298 2.03225144651675 0.0484200000000001
0.04844 6.43193549975151 7.22822394236104 12.9404874307961 0.380210280452266 2.08078174104474 0.04843
0.04845 6.50756917263193 7.17418866462232 13.1342649444495 0.381293654469394 2.06193790909616 0.0484400000000001
0.04846 6.52644334741938 7.19276560886386 12.8976632191756 0.386633484442108 2.04135340563271 0.0484500000000001
0.04847 6.57423510091747 7.19975067140608 12.878857424924 0.385890719677483 2.04983688985353 0.04846
0.04848 6.58338809281735 7.12208623881334 12.8911354915765 0.383216580837303 2.0631411301434 0.0484700000000001
0.04849 6.69423244794092 7.25426928827485 12.8556905980973 0.385459798776235 2.06283058623442 0.0484800000000001
0.0485 6.64032723479046 7.40102472626238 12.7188405007643 0.401013867249882 2.02388901159602 0.04849
0.04851 6.716253239653 7.22351043752706 12.8079436849048 0.384438295411716 2.04096957730975 0.0485000000000001
0.04852 7.05396552569815 7.39039145724104 12.700395547445 0.400100847180406 2.05771136812887 0.04851
0.04853 6.91271532438329 7.23088655956706 12.720282775445 0.397491786753183 2.0385724056966 0.04852
0.04854 6.7892092233824 7.22274212323119 12.9107413643024 0.395006801060772 2.04228771433995 0.0485300000000001
0.04855 6.63236746419439 7.48762217606879 12.7781596803306 0.399273857708799 2.03164926027256 0.04854
0.04856 6.5539188781143 7.26338938430554 12.8910003720235 0.390678036472661 2.04414970460288 0.0485500000000001
0.04857 6.51774713221948 7.43083662519228 12.7599784361447 0.390754722664376 2.04751089606149 0.0485600000000001
0.04858 6.53935520691294 7.30043129226868 12.9621255345109 0.393599368222268 2.058199403873 0.04857
0.04859 6.33707971839702 7.20794031320176 13.0116344408042 0.38146720821357 2.06879983888282 0.0485800000000001
0.0486 6.37728256460047 7.09222030251895 13.0691599896239 0.379370302824587 2.08032191864658 0.04859
0.04861 6.60623636087832 7.04928255505899 13.0355128501342 0.382455786054508 2.07812031608857 0.0486000000000001
0.04862 6.45906180881018 6.96764945191515 12.95217180488 0.382683003587156 2.04444659720562 0.0486100000000001
0.04863 6.39148296416573 7.13624171781426 12.9265115278098 0.38094436028554 2.05668022504705 0.04862
0.04864 6.67069598344584 7.24310364231852 12.8522636824788 0.393626567005625 2.0480829755328 0.0486300000000001
0.04865 6.4717634759504 7.1084617398718 13.0181059568362 0.383687975915796 2.05688864148926 0.0486400000000001
0.04866 6.53584509998221 7.09221509275026 13.0228478854108 0.375871483090584 2.07737530300116 0.04865
0.04867 6.78097917123326 7.06165370658283 12.8515939738236 0.399145945919454 2.03916660518787 0.0486600000000001
0.04868 6.68442460135567 7.30873219005436 12.9372010858669 0.391983402743629 2.06173447623006 0.04867
0.04869 6.61641775146632 7.32983424259493 12.8576218025762 0.394393821240378 2.03989891220865 0.0486800000000001
0.0487 6.78458410393342 7.3185641404351 12.826276235411 0.39390829970947 2.04212711773507 0.0486900000000001
0.04871 6.64727233365613 7.36007045579956 12.8265483792581 0.393522631814308 2.05616078683692 0.0487
0.04872 6.83898816871586 7.16055681139696 12.785644216991 0.394655610304387 2.03691281063257 0.0487100000000001
0.04873 6.69569188412403 7.21476950232268 12.9717607172018 0.39020875554252 2.06553718270801 0.04872
0.04874 6.64238898628412 7.27621506729832 12.8597767710879 0.388806446705238 2.05498261414462 0.04873
0.04875 6.90050773914152 7.3508514544183 12.7093259070229 0.390478262771625 2.06173888494237 0.0487400000000001
0.04876 6.50059528325909 7.33110823059439 12.8227269805269 0.387157725448288 2.05727302966323 0.04875
0.04877 6.53507852340141 7.24731092182157 12.9072242252925 0.391291994309292 2.04989150483525 0.0487600000000001
0.04878 6.59508219585942 7.36614883074321 12.9746143722942 0.393138170448687 2.05939646896521 0.0487700000000001
0.04879 6.67928410359198 7.31243880248545 12.8976902666729 0.395566859933588 2.03741362846419 0.04878
0.0488 6.77000095326166 7.28128432662598 12.8551999583344 0.401000219247819 2.04333472767347 0.0487900000000001
0.04881 6.72387206066753 7.34038789792538 13.0818777614926 0.40315459153918 2.05497806335315 0.0488
0.04882 6.75956458513082 7.26210266917526 13.0650100455388 0.392147188789579 2.06078385484604 0.04881
0.04883 6.65283588679109 7.32580297318403 13.0206071720354 0.390842015506614 2.07628664133482 0.0488200000000001
0.04884 6.70674502503069 7.1972794196694 12.9655208226794 0.394303566731621 2.04683180573357 0.04883
0.04885 6.65091861824293 7.23147138475108 12.9892497644509 0.387585516891831 2.06123785308981 0.0488400000000001
0.04886 6.55260409585321 7.21876370769259 13.0211628954928 0.388601701379498 2.0812381546535 0.0488500000000001
0.04887 6.63023593739112 7.07683326675569 13.0473729870509 0.383224729647318 2.07098357580859 0.04886
0.04888 6.76648989708583 7.30774192342937 13.0404173921359 0.398178724649311 2.05201916777527 0.0488700000000001
0.04889 6.64188965368067 7.36282213668579 12.9134564817725 0.391009194206556 2.0662919077686 0.04888
0.0489 6.79575271158461 7.21054019729685 12.8624097947594 0.388639158985575 2.06321507336511 0.0488900000000001
0.04891 6.83061251472051 7.39574785082279 12.939513087722 0.401698702139429 2.05266977002684 0.0489000000000001
0.04892 6.84534361148208 7.54548431306362 12.8274977807025 0.40477183145715 2.04758285744602 0.04891
0.04893 6.81611612749499 7.51584869055633 12.7544755192719 0.396500740305219 2.0604847971157 0.0489200000000001
0.04894 6.86914053108376 7.53690724573699 12.8612461384699 0.403372383451892 2.06621172778367 0.04893
0.04895 6.91438595656 7.56908205742083 12.8077479825288 0.405042723918932 2.05899927888205 0.04894
0.04896 7.04520453618376 7.26728392161198 12.8257674478411 0.403997006186982 2.06828995211382 0.0489500000000001
0.04897 6.77943707495018 7.17347252104377 12.9408316369654 0.383271645960819 2.08731806721173 0.04896
0.04898 6.77640701653568 7.49145840174163 12.9535569903498 0.395913976543428 2.07919337470146 0.0489700000000001
0.04899 6.78040859472831 7.40455349661238 12.8771108258936 0.399236530101656 2.05752134810806 0.0489800000000001
0.049 6.5956780311261 7.35760428894978 12.9440212508934 0.386102620490901 2.08060965590807 0.04899
0.04901 6.77354893794139 7.35412614147667 12.8883994122762 0.407775595502703 2.03943565787009 0.0490000000000001
0.04902 6.5899232597277 7.22505257571449 13.1016187599408 0.381742820025274 2.10818103047689 0.04901
0.04903 6.53788165983222 6.94490483339781 13.1762989142332 0.370881665054178 2.09495304915536 0.04902
0.04904 6.50414670792215 7.10251611621179 13.1954005064202 0.38190777588624 2.08693546445235 0.0490300000000001
0.04905 6.35655492145975 7.0441273518539 13.2288786213224 0.377794515417419 2.07610046553598 0.04904
0.04906 6.42875867794861 7.00963660561777 13.2003451473239 0.377700732334884 2.08514547822511 0.0490500000000001
0.04907 6.52914319574439 7.05536840646972 13.2081112754419 0.386760141241012 2.07838560945607 0.0490600000000001
0.04908 6.6047892502223 7.06321888102743 13.2230134681542 0.389845786164331 2.08417266937902 0.04907
0.04909 6.5909238780314 7.11308927694662 13.0862848808584 0.383629735635136 2.06336801751064 0.0490800000000001
0.0491 6.74382960300225 7.38264320391684 12.9644671689991 0.390873875755897 2.09254237181147 0.04909
0.04911 6.87805279225462 7.37354539823525 13.0284674577561 0.397339105367177 2.09945192828035 0.0491
0.04912 6.88809962381452 7.52239018067743 12.9349173655402 0.405368113436849 2.05932218286707 0.0491100000000001
0.04913 6.80127333270574 7.35460951462219 12.915208675628 0.392583654397583 2.06998612505727 0.04912
0.04914 7.06406082781039 7.45094066059965 12.8597346279461 0.410192265723112 2.06730038990098 0.0491300000000001
0.04915 7.19429069088651 7.51692205285403 12.7629391418237 0.407250688946957 2.0619150281856 0.0491400000000001
0.04916 7.10976056910755 7.54198850354566 12.7798813349582 0.413201944522678 2.05524505815888 0.04915
0.04917 7.18181167026206 7.59285698525023 12.7782911762122 0.41764696495172 2.071373590468 0.0491600000000001
0.04918 7.10679754362571 7.45717592736194 12.853361278657 0.40721607879245 2.0584495521455 0.04917
0.04919 7.10111004522325 7.57326062012626 12.7884849106478 0.410255663152466 2.05858120292956 0.0491800000000001
0.0492 7.0192350612897 7.47363493040971 12.7696866438806 0.404776971377217 2.06584000145403 0.0491900000000001
0.04921 6.86971195520201 7.413768417282 12.9052977754822 0.402415560474917 2.06655267840377 0.0492
0.04922 6.70380699641809 7.3036233655004 13.0074833000168 0.392260439268596 2.07138799006631 0.0492100000000001
0.04923 6.65315649628057 7.17666185080468 12.9505276936166 0.380949237685599 2.08489878775477 0.0492200000000001
0.04924 6.43518744207642 7.27920040994642 13.2386446444079 0.381437072737793 2.10209596949944 0.04923
0.04925 6.66546519708377 7.14372394357673 12.9918348110849 0.385972966857007 2.0573428926151 0.0492400000000001
0.04926 6.38195930379124 7.07945552836284 13.2415076084854 0.376207322176471 2.09398556413788 0.04925
0.04927 6.62786126083067 7.15511410254403 13.2302742919123 0.385232672366332 2.08175309094296 0.04926
0.04928 6.49764769701228 7.20885297357915 13.1420185967491 0.387089512774097 2.08943619018617 0.0492700000000001
0.04929 6.5118496513353 6.91984803086282 13.2008423289714 0.376137999386712 2.09330763799231 0.04928
0.0493 6.46488147265833 7.11856255580327 13.173219230363 0.381628419170183 2.07443898535342 0.0492900000000001
0.04931 6.67718819026317 7.31090346682812 13.096046321552 0.388824207377773 2.08423306105827 0.0493000000000001
0.04932 6.72265153915503 7.18511734519982 13.0460573482195 0.390008133555408 2.08768558913739 0.04931
0.04933 6.68215625015545 7.19753433800092 13.1260914747684 0.390355120449361 2.0805512963951 0.0493200000000001
0.04934 6.75991141432575 7.30443651641329 12.979973940056 0.39889272859899 2.06184193160397 0.04933
0.04935 6.97183388517466 7.31701668540098 13.1330867030267 0.403792451022841 2.10415629251647 0.0493400000000001
0.04936 6.82959382883127 7.41667767289402 12.9783861805978 0.397479364091453 2.07327323447043 0.0493500000000001
0.04937 6.97940581327159 7.5361666374577 12.8959150882849 0.41058188906096 2.07159195227197 0.04936
0.04938 6.90089822392147 7.53815438422441 12.8776149831179 0.412749588082475 2.05930194849981 0.0493700000000001
0.04939 6.93067994009333 7.72686594090123 12.950231991266 0.412310716295024 2.07998185486121 0.04938
0.0494 6.95038150192317 7.59794308590187 12.8197052514642 0.408329288076538 2.04380057786719 0.04939
0.04941 6.91957016226217 7.5184043830075 12.9136862690663 0.402031662840165 2.07616579101787 0.0494000000000001
0.04942 7.02648012856057 7.49314579070392 12.8820996137575 0.411131260822639 2.04432215889624 0.04941
0.04943 7.01026054518974 7.5537077825095 12.9721954739207 0.408094393507479 2.07954596102025 0.0494200000000001
0.04944 6.93828977507107 7.33391439212036 13.0204682087698 0.399981178286683 2.07052362595313 0.0494300000000001
0.04945 6.69807443888146 7.37014603704918 13.0176617323155 0.396165958613139 2.06802178022903 0.04944
0.04946 6.99944464147311 7.48276744409518 12.9387449782722 0.403974598269764 2.08592489917769 0.0494500000000001
0.04947 6.86800192384065 7.26781954352924 13.0746002401742 0.389902294390306 2.10399329127384 0.04946
0.04948 6.76888211860033 7.26393015788647 13.1471190784939 0.400138185455059 2.06215123508186 0.04947
0.04949 6.78489268346836 7.29496913725817 13.0239527969902 0.389573881140543 2.08619242479828 0.0494800000000001
0.0495 6.71176959050472 7.48659899590036 13.2186410913238 0.398826790951013 2.09485845071695 0.04949
0.04951 6.73021320841218 7.35488675818169 13.1994485485796 0.397019640478146 2.09098388238678 0.0495000000000001
0.04952 6.75001906885484 7.35881206816914 13.1912314378479 0.402868960497215 2.07016909964046 0.0495100000000001
0.04953 6.75516487603814 7.34353833623061 13.0935287964652 0.4033378794883 2.08684346118615 0.04952
0.04954 6.7229128414852 7.46177308472278 13.0997203376592 0.398311623490915 2.11107246144496 0.0495300000000001
0.04955 6.68882496704405 7.4018579998773 13.1979990564989 0.398283330470564 2.07588452646228 0.04954
0.04956 6.72768993891837 7.43520430077226 13.0783576994525 0.40037350705476 2.08765520386285 0.04955
0.04957 6.68287829906041 7.62441693187248 12.9826872344543 0.399482295146064 2.09238076469544 0.0495600000000001
0.04958 6.83932833099863 7.45879550698614 13.0518670396336 0.400376212218001 2.10588875647016 0.04957
0.04959 6.94278855546822 7.5371750336794 12.981074088068 0.405442783564672 2.09122809141777 0.0495800000000001
0.0496 6.79175805975789 7.36456534007701 13.0196339299734 0.400529925772663 2.07996280829161 0.0495900000000001
0.04961 6.93416034039892 7.4903181419927 13.0726177707278 0.402581962775155 2.0885635779212 0.0496
0.04962 6.82274166624715 7.37913551180334 13.1395565290852 0.397398857147054 2.08004997090714 0.0496100000000001
0.04963 6.98428299435599 7.44328848046354 13.1066319385861 0.405537689159474 2.10265270586736 0.04962
0.04964 6.66904952172533 7.32361873023299 13.1984141994701 0.393386901649918 2.08517319625857 0.0496300000000001
0.04965 6.67835342586631 7.46494492107019 13.1928059439588 0.397080584840415 2.09490146496822 0.0496400000000001
0.04966 6.84200401919417 7.41461913988224 13.0859173160434 0.39958979764266 2.11646345432978 0.04965
0.04967 6.98100639165331 7.5966422089787 13.1039945123369 0.40695934161452 2.10001318158523 0.0496600000000001
0.04968 6.80354761740935 7.39279603727657 13.0804067794832 0.396878943428303 2.08300704090888 0.0496700000000001
0.04969 6.7900965518395 7.62806521690656 13.0251756133292 0.399578000091387 2.09352711100057 0.04968
0.0497 6.88729581595513 7.54663100046048 12.9542015390735 0.406236593611345 2.0952914866531 0.0496900000000001
0.04971 6.83783612780475 7.38936659731208 13.0868298603933 0.396590084221972 2.10842628512996 0.0497
0.04972 6.88376975285006 7.45130808526372 13.1187753854643 0.399131060437712 2.08454296459711 0.04971
0.04973 6.86333701158453 7.62881274136724 13.1314114740553 0.408786429547294 2.0948375773143 0.0497200000000001
0.04974 7.02217240073631 7.43132730013787 13.036662166029 0.412175619798939 2.08867087267879 0.04973
0.04975 6.93061961915101 7.39405936975917 13.2094310523401 0.399824696360858 2.12433983743855 0.0497400000000001
0.04976 6.8794073372458 7.48155439331075 13.0953387777889 0.396331118711117 2.10149759406568 0.0497500000000001
0.04977 6.79410839868443 7.46598504035422 13.2133977987726 0.399944306848623 2.11417884040039 0.04976
0.04978 6.94567233547679 7.52447402339982 13.0624633801072 0.406632285247374 2.07955462573067 0.0497700000000001
0.04979 6.90440474293121 7.56821152364498 13.0906803618792 0.405783682506092 2.10521723300719 0.04978
0.0498 6.94238378915459 7.65307880018075 13.0619574784715 0.411544610296008 2.07434065094977 0.0497900000000001
0.04981 6.93657217744691 7.50564799874883 13.1316159940744 0.402388682384725 2.08802722285125 0.0498000000000001
0.04982 6.93068101014183 7.60110521165371 13.0677902460169 0.414432803043081 2.08559319059616 0.04981
0.04983 7.00406555007299 7.59049967358532 13.1730802650479 0.406131848557153 2.10589677243925 0.0498200000000001
0.04984 7.00103934959127 7.52461428206827 13.1554584566912 0.405711208729159 2.08781398166402 0.04983
0.04985 6.94709052645184 7.63120622729979 13.131434919107 0.412079919604106 2.08173436809116 0.04984
0.04986 6.8154379956869 7.53474262987366 13.2142150498089 0.400071128144472 2.1063675860308 0.0498500000000001
0.04987 6.83253926335843 7.50415495482216 13.1065591588639 0.401299096366137 2.125746933107 0.04986
0.04988 6.91123946513416 7.48021216493647 13.1879783225812 0.400732075118269 2.12798883675909 0.0498700000000001
0.04989 6.81384818922754 7.48607821343749 13.2169731795119 0.40013920993205 2.10482461198107 0.0498800000000001
0.0499 6.92271155776933 7.34644716917562 13.3766461652711 0.401379228984547 2.12145438074007 0.04989
0.04991 6.78752987863241 7.36161785262442 13.314798121512 0.401319849253736 2.10547630129109 0.0499000000000001
0.04992 6.77644511869417 7.39838012885268 13.2319929658626 0.395150973477178 2.11821647918638 0.04991
0.04993 6.77325709680415 7.29893524101721 13.2306599184943 0.389744790440697 2.11127431226834 0.04992
0.04994 6.85579265789307 7.42658732643051 13.2415949920487 0.405476225032099 2.09156772650046 0.0499300000000001
0.04995 6.74539926092057 7.32721275251446 13.1970101748982 0.396219145190968 2.09181642325252 0.04994
0.04996 7.07110229962347 7.45445886858462 13.1514332811552 0.401506189460788 2.11261666432724 0.0499500000000001
0.04997 6.95683949480047 7.3773219139274 13.3081591727587 0.406390309490708 2.09865677950118 0.0499600000000001
0.04998 7.0088377258914 7.43882588009801 13.1949948823544 0.402460821644413 2.09309275676693 0.04997
0.04999 7.20069887867807 7.63264484213076 13.0202414222634 0.411762266470287 2.0972664337412 0.0499800000000001
0.05 6.96773938921854 7.48727317549742 13.1383664692527 0.410622818880633 2.07783984962109 0.04999
0.05001 6.96923565657202 7.4613914723296 13.198028678481 0.406002958234123 2.10074186017528 0.05
0.05002 6.87492509309124 7.62629017754156 13.038892829507 0.400325754575642 2.10329725144857 0.0500100000000001
0.05003 6.83719186558433 7.58935837068721 13.0959391767154 0.406656894218466 2.10323274610839 0.05002
0.05004 6.83994255336669 7.39763825030369 13.1982148540609 0.39497233431921 2.13323226884411 0.0500300000000001
0.05005 6.96679217714392 7.40527790757507 13.2371976642389 0.408713894380219 2.09514179285606 0.0500400000000001
0.05006 6.83985836209986 7.70201199143028 13.1886715916864 0.408410704399389 2.10777016911692 0.05005
0.05007 7.03202762455117 7.65782778068403 13.1133910944382 0.40865966136168 2.11713550300922 0.0500600000000001
0.05008 7.06305460902347 7.79993193300187 13.0939340378634 0.413612505112589 2.09622558968044 0.05007
0.05009 7.16945805378142 7.58423573595639 13.307082448685 0.416400825261304 2.10961418324092 0.0500800000000001
0.0501 7.06907550185747 7.62320796417763 13.2352405774639 0.411539127755612 2.0911358174428 0.0500900000000001
0.05011 6.97525758315032 7.66200123441908 13.0269132182297 0.405119246684076 2.10784980188022 0.0501
0.05012 6.78985756570096 7.56643289781944 13.2184904348706 0.399775600589716 2.1243219426981 0.0501100000000001
0.05013 6.97540271192104 7.49124651759183 13.3476510713971 0.40685701310672 2.10993339472182 0.0501200000000001
0.05014 7.0529324982899 7.5564476161312 13.2907270350206 0.408833753401152 2.12242862662347 0.05013
0.05015 6.74079028994293 7.45168921419775 13.0862613896417 0.405344848222172 2.10650268098556 0.0501400000000001
0.05016 7.07018599601109 7.67466745664206 13.1898565556674 0.417786472906989 2.13217861043721 0.05015
0.05017 6.95282344731952 7.43949767909116 13.3595366849418 0.40699740566146 2.10519984774213 0.0501600000000001
0.05018 6.96652751088735 7.42644180409394 13.2241352929799 0.404944938066632 2.1024702409446 0.0501700000000001
0.05019 6.9307312196726 7.457522844246 13.325578180889 0.404449606915085 2.11483269142914 0.05018
0.0502 6.86513641582509 7.41118514036059 13.2593062385814 0.406405257787938 2.09903514727837 0.0501900000000001
0.05021 6.89259969259912 7.47435251477247 13.3979256149803 0.405666763957593 2.12139677246894 0.0502000000000001
0.05022 7.08725113926327 7.67452932000612 13.1744346620113 0.412606661565223 2.10467789406114 0.05021
0.05023 7.08753615178637 7.58785871818053 13.0859227126405 0.407405479239496 2.10302099868158 0.0502200000000001
0.05024 6.99198794626894 7.46233591577561 13.1778562302531 0.401465231857271 2.10492597663471 0.05023
0.05025 6.88925742032836 7.51011534544198 13.2438128366708 0.39870141122618 2.11456813088482 0.0502400000000001
0.05026 7.04067916786611 7.55284061773943 13.3489487340674 0.415674549000977 2.09644155520808 0.0502500000000001
0.05027 7.06711503720733 7.63100473663799 13.1803911900039 0.414139023936881 2.09972165393918 0.05026
0.05028 7.02299672245522 7.56060347545 13.3355037705552 0.407049736986405 2.14754178654864 0.0502700000000001
0.05029 6.9069195438915 7.65847888802685 13.3207477361539 0.417899603699195 2.1133575776584 0.05028
0.0503 7.1718196438345 7.68294841027452 13.3002245358429 0.416852509992159 2.11927070760024 0.05029
0.05031 7.0357901964802 7.60738022198347 13.2644088630252 0.413200913049728 2.12016820855897 0.0503000000000001
0.05032 6.95500733186739 7.60251277358155 13.2360319104967 0.407200798874071 2.13700942481744 0.05031
0.05033 6.86120034469297 7.44044975162535 13.2663303558319 0.399991030889166 2.12606408688214 0.0503200000000001
0.05034 7.06982451312038 7.55310523480012 13.2311763251042 0.407637429657713 2.13329457382847 0.0503300000000001
0.05035 6.77116705433471 7.5864162017729 13.3566623547633 0.400110080102844 2.13777172120409 0.05034
0.05036 6.86636145644541 7.50522749093772 13.2650931941077 0.402642777759938 2.1175483159668 0.0503500000000001
0.05037 6.94314363226917 7.62443457299491 13.2421099777412 0.409598435780955 2.13516056776893 0.05036
0.05038 6.91457303188626 7.70801272726656 13.2677191569193 0.416039765668709 2.11178205158927 0.0503700000000001
0.05039 6.75490385469911 7.55993426181035 13.3182973219627 0.39599467669272 2.13374604884975 0.0503800000000001
0.0504 6.96506615710518 7.77241881941714 13.1416996749138 0.410253270635258 2.11530915692045 0.05039
0.05041 7.04563073402455 7.71655843721347 13.2186913802151 0.412499712123075 2.12416008683848 0.0504000000000001
0.05042 7.13463333714083 7.68296645046142 13.1751708973135 0.406368034185791 2.12165216953332 0.0504100000000001
0.05043 7.11769043808927 7.85031353204855 13.0828192327414 0.422487622214687 2.09831042009665 0.05042
0.05044 7.05304335975853 7.72328334944917 13.1412048339717 0.414719942873015 2.1124944504198 0.0504300000000001
0.05045 7.13398941859035 7.72432137941676 13.205705476884 0.423018617465924 2.11393785354422 0.05044
0.05046 7.02172324658608 7.64815197798595 13.3096938813347 0.410832462090244 2.12462086266236 0.05045
0.05047 7.11902688155404 7.5282355151902 13.2851805599755 0.407822522250632 2.11416886752171 0.0504600000000001
0.05048 7.08954292275393 7.54351292690757 13.2928234407455 0.410380680988019 2.12343752913193 0.05047
0.05049 7.11341588736285 7.78235294708642 13.1123454093253 0.419606912474516 2.11717101734216 0.0504800000000001
0.0505 7.26576451720996 7.65831189738947 13.1465923467316 0.417303956380801 2.11380146093287 0.05049
0.05051 6.86170855576912 7.48344344775313 13.418914300472 0.405224789172286 2.14423577688733 0.0505
0.05052 6.95099105321736 7.50060878245596 13.4329351411915 0.404534491882306 2.14557193847906 0.0505100000000001
0.05053 7.05626181983733 7.58496493578179 13.374148818592 0.409650515221269 2.13086649765999 0.05052
0.05054 6.94742992108808 7.42546909947875 13.3646435261596 0.406738930366328 2.12996866580309 0.0505300000000001
0.05055 6.87080345927081 7.31186610056748 13.4891409228356 0.395102664693509 2.13870177334303 0.0505400000000001
0.05056 6.99683651236337 7.56228368546369 13.4145923714585 0.407921541291421 2.12975571899363 0.05055
0.05057 7.000263199457 7.68269175177942 13.3510671745684 0.41221306907427 2.11509144213682 0.0505600000000001
0.05058 6.89573942935323 7.52050719688802 13.3767135682383 0.407402509120093 2.09982185760431 0.05057
0.05059 6.89062223877728 7.50346128847082 13.3932239837413 0.406682702984842 2.12175207050424 0.05058
0.0506 7.03121681634186 7.59895049772586 13.3266819267384 0.415067552566099 2.12098104581279 0.0505900000000001
0.05061 7.03072733514106 7.57299110498972 13.4147245631521 0.412691144205526 2.13495751496823 0.0506
0.05062 7.27126646809023 7.60170457687258 13.244775583047 0.417457434382975 2.12394147166229 0.0506100000000001
0.05063 6.9276690911438 7.77479706417436 13.3446388402807 0.40840658980965 2.12258507430679 0.0506200000000001
0.05064 7.11197158252938 7.86241034165485 13.2348710540538 0.418657956008111 2.09549103096221 0.05063
0.05065 7.15549769892669 7.96314469239064 13.1280076136958 0.4186495100597 2.12793649139701 0.0506400000000001
0.05066 7.14043342978107 7.75387991850901 13.0634131156753 0.423620602540031 2.10476036983157 0.05065
0.05067 7.11161644062038 7.90590690497478 13.1727472084129 0.419170438994814 2.13587065027844 0.0506600000000001
0.05068 7.24333079559088 7.83333626545248 13.1785848442206 0.422938580123161 2.15297086530033 0.0506700000000001
0.05069 7.22953036385088 7.93983024436262 13.2038169508181 0.427950200144335 2.12229228075715 0.05068
0.0507 7.14895414910958 7.71992196386618 13.2844464445627 0.421233252684216 2.13374557070079 0.0506900000000001
0.05071 7.13871711522988 7.72957477811754 13.3311134625295 0.417192204773939 2.11896352838144 0.0507000000000001
0.05072 7.13144336640283 7.76752826006305 13.4195840523942 0.41863016383027 2.14671830934106 0.05071
0.05073 6.93678834213808 7.67537696096034 13.3791039016931 0.410342365708268 2.14279362337439 0.0507200000000001
0.05074 7.04958181220904 7.52063405752001 13.3444728567702 0.401409960304629 2.13473489949321 0.05073
0.05075 7.13977596351649 7.67655493549794 13.3926122609873 0.415124223084029 2.12052677863678 0.05074
0.05076 7.2033409643346 7.65211552324476 13.3481255380101 0.419849877334568 2.13317474367555 0.0507500000000001
0.05077 6.99580737774441 7.50106904142449 13.4441523163166 0.405248152676171 2.13678664718675 0.05076
0.05078 6.96702018557874 7.41578647416965 13.5058254471482 0.409262719388905 2.13799595150911 0.0507700000000001
0.05079 6.94592543500528 7.60816367933921 13.3898664971292 0.405339530927152 2.13051128625849 0.0507800000000001
0.0508 6.94761187266699 7.4479078181282 13.4563804733427 0.40231680623848 2.15130211352428 0.05079
0.05081 7.00852167738057 7.68075530716035 13.5591766869287 0.415019339002858 2.14608738186805 0.0508000000000001
0.05082 7.07503583926769 7.55544305993641 13.5131416766303 0.412135698388484 2.14559129864181 0.05081
0.05083 7.01478268192413 7.57677462834196 13.4177833308634 0.418673468192485 2.11052740266527 0.0508200000000001
0.05084 7.14005037305136 7.80484021055993 13.3082095993033 0.418550021550136 2.13734490643551 0.0508300000000001
0.05085 7.09769675047122 7.72781972138887 13.4154762127655 0.417903893330112 2.13755279898167 0.05084
0.05086 7.1234486308348 7.65831504847985 13.3494094373477 0.417482479406501 2.11844023402981 0.0508500000000001
0.05087 7.24078016978054 7.79482147017846 13.2419733029231 0.417903754046908 2.13935105359078 0.0508600000000001
0.05088 7.1904571907081 7.89724454765619 13.3306957416098 0.429996544881094 2.11355228641814 0.05087
0.05089 7.20016636498527 7.92097797274931 13.1988073965887 0.420986728644181 2.1389893530148 0.0508800000000001
0.0509 7.15789096832994 7.78385458833518 13.2191976429767 0.416798504894748 2.14735050698415 0.05089
0.05091 7.07425179875356 7.809065970293 13.3474153779706 0.418598779766207 2.12917756752637 0.0509000000000001
0.05092 7.11420949749334 7.85156136189493 13.3609451668732 0.420147804346807 2.1468444598046 0.0509100000000001
0.05093 7.22172629300616 7.79669488836628 13.2722465823608 0.423417791758879 2.11758566726347 0.05092
0.05094 7.20254067727823 7.76689848556583 13.339225223989 0.411669208786657 2.12651333979871 0.0509300000000001
0.05095 6.9739131275105 7.66483041449361 13.489332089258 0.407955767521088 2.15227361909452 0.05094
0.05096 7.02613677003941 7.61422046268883 13.3535055031703 0.410009518567059 2.1265917180953 0.05095
0.05097 6.95891453519733 7.49103891628274 13.3986453023987 0.404469296432575 2.13698554437231 0.0509600000000001
0.05098 6.81029969944794 7.67862424765369 13.3934140830426 0.410235234225577 2.14723007614871 0.05097
0.05099 7.15282314894442 7.8142630528475 13.3287465899443 0.420621681486603 2.13460319339262 0.0509800000000001
0.051 7.10624079330797 7.61333679147784 13.4434221413419 0.416692439759228 2.1347550110821 0.0509900000000001
0.05101 7.09257659245901 7.97887748186911 13.3545291715254 0.424588889314113 2.14437203297976 0.051
0.05102 7.33453712289786 7.97917033941027 13.1537603191202 0.425918813327043 2.14767329397087 0.0510100000000001
0.05103 7.37975994204478 7.85461477594619 13.305710711252 0.429858275460287 2.14440367116684 0.05102
0.05104 7.37074083876284 7.74031844893741 13.2605073558217 0.420798847832845 2.12825620759471 0.05103
0.05105 7.24784949208319 7.83853997056616 13.2481268423637 0.418070572460346 2.13501175874825 0.0510400000000001
0.05106 7.35889746660346 7.84728253158975 13.3391193959924 0.424146209171902 2.15202091526559 0.05105
0.05107 7.2970878800382 7.78715232333558 13.3753314549437 0.421478764815083 2.15076782988283 0.0510600000000001
0.05108 7.00562219118711 7.71217998205246 13.5418829831403 0.411688437777806 2.15877894163351 0.0510700000000001
0.05109 6.97237745302443 7.51760800021202 13.5734157739619 0.405449796123671 2.15629458958153 0.05108
0.0511 7.10192966165776 7.4745992664354 13.5091431066817 0.415806358099498 2.13497912065395 0.0510900000000001
0.05111 7.28059972676913 7.5602366496741 13.4624155903128 0.410141059170688 2.16167141995307 0.0511
0.05112 6.97975663251173 7.47067192771231 13.5305674846999 0.407541158958376 2.12881441111509 0.0511100000000001
0.05113 7.11523832172494 7.46103891620645 13.5038951705057 0.412637790914762 2.13455944167297 0.0511200000000001
0.05114 6.87528271077736 7.53288643416854 13.5674437343022 0.403605066996711 2.17433260474705 0.05113
0.05115 6.99013094847138 7.56133800156677 13.5196702083301 0.409545216527714 2.14052553462975 0.0511400000000001
0.05116 6.97641119157922 7.57512256473971 13.463794547212 0.414564058258232 2.13101691656134 0.0511500000000001
0.05117 7.06446706268148 7.61455042677029 13.5129615046914 0.410617451106847 2.15376364598114 0.05116
0.05118 7.03627069347411 7.68016539942525 13.5179067131568 0.416469054495243 2.1483116721031 0.0511700000000001
0.05119 7.11852045303795 7.77026014143165 13.2923502824701 0.418437512807529 2.15027838614175 0.05118
0.0512 7.20868255480081 7.86418313546154 13.3447701205653 0.418192781874337 2.1583247187536 0.0511900000000001
0.05121 7.32939487638214 7.77448493017314 13.4419692122703 0.426107703170766 2.14323276061213 0.0512000000000001
0.05122 7.29023815395354 7.77645615634788 13.3546020083706 0.421405953843116 2.12598989190103 0.05121
0.05123 7.22773652458458 7.74644063888117 13.3190413402922 0.420676347149272 2.12237281107547 0.0512200000000001
0.05124 7.50568396979188 7.82864162572308 13.2680887076606 0.434011381426629 2.14072802807152 0.0512300000000001
0.05125 7.39756663399948 7.80924661606275 13.3318104789964 0.431631758928176 2.15056293359576 0.05124
0.05126 7.28408744475216 7.76507463438418 13.3802122082604 0.421211307677705 2.13729687912008 0.0512500000000001
0.05127 7.36336078057433 7.92590791391657 13.3383802281893 0.429378094294292 2.14740363850816 0.05126
0.05128 7.53661323412674 7.87000388998294 13.3274645296767 0.440005446122449 2.12758333133254 0.0512700000000001
0.05129 7.2378261961846 7.80200972860874 13.4919759259675 0.420588519157469 2.15895177225995 0.0512800000000001
0.0513 7.25551455687017 7.9155593058273 13.3102437245184 0.426555028580641 2.13519568719434 0.05129
0.05131 7.38899069473057 7.85183758700687 13.2845055496785 0.429817169603574 2.12452232794733 0.0513000000000001
0.05132 7.21046294497027 7.78900672606465 13.4367900336636 0.414833518775677 2.16289118925229 0.0513100000000001
0.05133 7.02880433460628 7.59885430436192 13.5193801384555 0.408345622649403 2.15177029603746 0.05132
0.05134 7.06645301894524 7.65725099377415 13.6504151803552 0.410367421860933 2.16398909081065 0.0513300000000001
0.05135 7.09095928404186 7.66615185726166 13.6033083872711 0.413036319687427 2.16379390343258 0.05134
0.05136 6.88306117772583 7.70581360567018 13.6566162091338 0.412063999962543 2.1683739376479 0.0513500000000001
0.05137 6.76414285110672 7.66711831760977 13.6382842188702 0.399819232315027 2.17180071457288 0.0513600000000001
0.05138 6.8655669934492 7.51312876549262 13.772583808473 0.406109430033482 2.18177657153392 0.05137
0.05139 6.95144717164206 7.67964209591518 13.6438394980568 0.406154813234309 2.17074458098587 0.0513800000000001
0.0514 7.09213836994744 7.62745029431783 13.60840332841 0.407784585846746 2.173213481593 0.05139
0.05141 7.17388148659456 7.63661370178317 13.6041288596983 0.409870496362713 2.15579123119599 0.0514000000000001
0.05142 7.08410591477489 7.81277154750892 13.4757542109537 0.423970928726313 2.13004047052453 0.0514100000000001
0.05143 7.30941557948339 7.85709097200762 13.3679301472163 0.419559384080985 2.16977452834885 0.05142
0.05144 7.54522752936563 8.02353704343244 13.3371923425501 0.440483308858374 2.15213263836806 0.0514300000000001
0.05145 7.59479137054485 8.00333469799723 13.4131300161126 0.441574459753803 2.14434574643336 0.0514400000000001
0.05146 7.59192312740008 8.03209314700044 13.2527611889147 0.433336683680408 2.14371255214865 0.05145
0.05147 7.37050620041442 7.94426278701525 13.3521525327408 0.425735554086882 2.14495168937256 0.0514600000000001
0.05148 7.45024141403764 7.96524660302379 13.2854233586746 0.431875434902837 2.14982691362446 0.05147
0.05149 7.39311594682552 7.91564828288042 13.3150623559419 0.42987179819033 2.15002327620267 0.05148
0.0515 7.44337055814777 7.92826723042044 13.404483421916 0.428146993169214 2.15920901628475 0.0514900000000001
0.05151 7.28775208856653 7.89211671819062 13.3957155745338 0.43292618435923 2.13772282858117 0.0515
0.05152 7.28940971791726 7.77759958088082 13.4294223929429 0.417700226057476 2.16402160030094 0.0515100000000001
0.05153 7.07389475225071 8.03977489946155 13.4782670073667 0.424587482717401 2.16545488021754 0.0515200000000001
0.05154 7.17303449298368 7.80980906779746 13.52037275285 0.41848573639893 2.17870052920814 0.05153
0.05155 7.03408696104662 7.75220970244538 13.6800941070432 0.419070564266193 2.17293741598056 0.0515400000000001
0.05156 7.02037396200592 7.54459205706495 13.5891163680117 0.403393173064226 2.16474952540966 0.05155
0.05157 7.20497746316543 7.61177101495362 13.6810094104813 0.417497651762646 2.16790696705745 0.0515600000000001
0.05158 7.18852844062823 7.58424966010477 13.6184501890139 0.414056611314305 2.15506286562285 0.0515700000000001
0.05159 7.0308058621208 7.69659380877311 13.6251845700858 0.409288517761628 2.1529807571737 0.05158
0.0516 6.99349143771621 7.78092067350381 13.6065700078598 0.41478559003764 2.16901860653507 0.0515900000000001
0.05161 7.09422072832396 7.83892174150694 13.5579977800935 0.417409579707177 2.17931239601161 0.0516000000000001
0.05162 7.16744557019913 7.7339376581554 13.5763686226585 0.417152959443512 2.16024463737533 0.05161
0.05163 7.31671382714588 7.81216740017606 13.5240566208547 0.422325680665296 2.14986779902035 0.0516200000000001
0.05164 7.14693786185836 7.73149736313312 13.5314404950224 0.410929422349375 2.16610707540494 0.05163
0.05165 7.27464335980206 7.89553043359997 13.444956967174 0.429866818449047 2.16962852998405 0.05164
0.05166 7.34300761716207 7.8986391580471 13.3977826745768 0.421571934637533 2.15483191611504 0.0516500000000001
0.05167 7.37447027128366 8.08681480740144 13.3185254507226 0.433257574765362 2.16707364898434 0.05166
0.05168 7.57078702314992 8.07648234715292 13.3318041883471 0.440438469323637 2.15387809042785 0.0516700000000001
0.05169 7.55878930026991 8.12947598804237 13.4067574482606 0.434482227340339 2.16675189122899 0.0516800000000001
0.0517 7.52361287069577 8.22865261907768 13.2568629863345 0.446972676398169 2.14669965417967 0.05169
0.05171 7.36723247846014 8.09259056857508 13.4807945509955 0.425720526746476 2.19073657290904 0.0517000000000001
0.05172 7.35580414032097 7.98271517441282 13.6331254238399 0.431566846368892 2.17637099063107 0.05171
0.05173 7.28770328055091 7.91849098080511 13.4596858213157 0.425875519327309 2.16041982071325 0.0517200000000001
0.05174 7.20341704009579 7.70771109734991 13.5014237997851 0.416280945987824 2.16275906548696 0.0517300000000001
0.05175 7.31727393560611 7.84556824029077 13.6873576277605 0.419696614491277 2.18508256234265 0.05174
0.05176 7.20761332512441 7.59784283039084 13.6804542763319 0.414806548125034 2.17041953450982 0.0517500000000001
0.05177 6.92687848737828 7.54451148439545 13.7670382136676 0.413478903885642 2.17520806030345 0.05176
0.05178 6.96034405591947 7.74815086199679 13.7458646787811 0.407110876805549 2.19774241811188 0.05177
0.05179 6.95573897253089 7.60218815007374 13.7733140731929 0.411913399710944 2.17798405591281 0.0517800000000001
0.0518 6.86317879144741 7.80172610336723 13.7780545704586 0.414607481561359 2.18438105413177 0.05179
0.05181 7.11970241160462 7.78484973539044 13.681512830765 0.413709694601405 2.19840176318713 0.0518000000000001
0.05182 7.1725198009171 7.62881834194857 13.7023791971779 0.419563695747432 2.17325482325664 0.0518100000000001
0.05183 7.1246545505355 7.66276135704466 13.5767877086177 0.416001906032219 2.16330694618622 0.05182
0.05184 7.31263259760316 7.98978369886663 13.4507073515618 0.428297409261502 2.17209051249696 0.0518300000000001
0.05185 7.33265990040015 7.95192338950303 13.5314884306523 0.432023018386738 2.17615236768539 0.05184
0.05186 7.50534968192544 8.0175389857086 13.4256115156663 0.438104403342758 2.15945595348615 0.05185
0.05187 7.36915049383317 8.11447822875788 13.3970849342544 0.432489591675786 2.1732056967019 0.0518600000000001
0.05188 7.80439789224428 8.25331686272701 13.3186427666518 0.456892665652984 2.15777265088785 0.05187
0.05189 7.43851420270451 8.08513392703986 13.3868020782364 0.430993996994962 2.15981787074922 0.0518800000000001
0.0519 7.39999206964284 8.26109023065708 13.3287495918996 0.441259538962125 2.13819990529565 0.0518900000000001
0.05191 7.36687459601003 8.22013900104718 13.3089621891607 0.443099292882593 2.15791711903626 0.0519
0.05192 7.32337335933993 8.0444627043548 13.447593857357 0.428666814331546 2.16795448624169 0.0519100000000001
0.05193 7.48753349466172 7.85760956872532 13.5288407269945 0.436940581603456 2.16384370500117 0.05192
0.05194 7.34100808376524 7.97467883129904 13.4694678319624 0.424580163712342 2.19688275000333 0.05193
0.05195 7.55288906916919 8.0785218526942 13.465072689085 0.440131069866493 2.16805085481114 0.0519400000000001
0.05196 7.30486225559055 8.02104555244527 13.6943181674573 0.427363632724645 2.17126797515682 0.05195
0.05197 7.16340425707634 7.82290504617553 13.7585517456054 0.420465168561642 2.19024853762017 0.0519600000000001
0.05198 6.97166190673109 7.77763908632993 13.7731827049128 0.410644026045793 2.17936762567332 0.0519700000000001
0.05199 7.02133483205507 7.78160210371802 13.7591719332481 0.417455314082782 2.18036240392122 0.05198
0.052 7.08250016249251 7.67386056818924 13.8339786499171 0.410942183052416 2.20925317779971 0.0519900000000001
0.05201 7.10030603496062 7.6038190027885 13.7768402295129 0.4100708801473 2.17761795043544 0.052
0.05202 7.19054086678921 7.80727469999189 13.8413211243994 0.42806645891875 2.17820781761497 0.0520100000000001
0.05203 7.16975977748706 7.62304533525611 13.7514676882989 0.412483114897666 2.19124501901282 0.0520200000000001
0.05204 7.15857241777772 7.85134660878456 13.6719768883279 0.418512116823612 2.18905623606979 0.05203
0.05205 7.26589962000899 7.88072106885616 13.6586677066718 0.416386086187773 2.21944219862821 0.0520400000000001
0.05206 7.50510289171459 7.87627844028164 13.6502572837833 0.434948415114049 2.1529161983433 0.0520500000000001
0.05207 7.39118323144921 7.87842235694305 13.5159406495955 0.431512883805602 2.14497834768339 0.05206
0.05208 7.32720734165575 7.98944390038968 13.5621594817358 0.433887544124981 2.18667342644408 0.0520700000000001
0.05209 7.53863876818112 8.1232630268493 13.5575115750029 0.441261837080276 2.16941646816514 0.05208
0.0521 7.61770008199025 8.2610894053531 13.3790300814994 0.444142387968666 2.17297338914131 0.0520900000000001
0.05211 7.5965727233895 8.2371458757113 13.4337954629719 0.439430439019745 2.17300815579046 0.0521000000000001
0.05212 7.5267312391849 8.0316403656823 13.4935708656087 0.43725794855871 2.17124684565257 0.05211
0.05213 7.50524872473519 8.10604960850832 13.5441051760865 0.437237880432896 2.173272977763 0.0521200000000001
0.05214 7.51203911637076 8.05891480287186 13.5315523560043 0.439161091846459 2.17690795172679 0.0521300000000001
0.05215 7.58474987833313 8.11413826601304 13.3260929085134 0.434868041927426 2.15335303273381 0.05214
0.05216 7.22881426420623 8.01900220323352 13.5544444295825 0.421970318422331 2.18088726840863 0.0521500000000001
0.05217 7.20507028898786 7.92947024753855 13.592590814398 0.42346660282018 2.18482474036502 0.05216
0.05218 7.2843490545422 8.04293890120065 13.6286670592298 0.419905475778743 2.18141699334299 0.0521700000000001
0.05219 7.2753537137828 7.95693474677414 13.5095401902484 0.428548847862692 2.16458125902397 0.0521800000000001
0.0522 7.17220990959566 7.76893553023075 13.8164415546037 0.416997004148146 2.20184726698507 0.05219
0.05221 7.27562548853948 7.72958253372729 13.7939690609679 0.424852852056042 2.17737579142469 0.0522000000000001
0.05222 7.28096746082784 7.86907375068213 13.7378929894878 0.426419885862909 2.19837346929334 0.05221
0.05223 7.07154422334108 7.81202634410907 13.6853631315676 0.417435655149535 2.1825633836484 0.05222
0.05224 7.35280964607698 7.88967576042168 13.6400349474158 0.426643397470111 2.19830996398159 0.0522300000000001
0.05225 7.29725800936096 8.01440348709777 13.5707998900526 0.430215084404864 2.17819404283337 0.05224
0.05226 7.43551573631902 8.0004056445135 13.6091256648806 0.433207990268977 2.20345593874819 0.0522500000000001
0.05227 7.59807535400183 8.08863329207662 13.5704155574937 0.42969961691944 2.21701307122937 0.0522600000000001
0.05228 7.57025272480708 8.04930387434948 13.5515090304432 0.445798364661054 2.16284947167917 0.05227
0.05229 7.33253604395902 8.09087844434102 13.487640264687 0.434897043261978 2.15239533360431 0.0522800000000001
0.0523 7.4866333331317 7.99724500438522 13.5629370922582 0.430220627663102 2.19630345538616 0.05229
0.05231 7.39350782689303 8.17871160128699 13.5137470207243 0.441951835139233 2.18401605324485 0.0523000000000001
0.05232 7.47377002857256 7.94272747905294 13.5981104278381 0.434237011814964 2.17813588880437 0.0523100000000001
0.05233 7.58023202323521 7.97608975932763 13.6655524846716 0.437318877232613 2.18986782219869 0.05232
0.05234 7.35273323307519 8.15954894954829 13.6050227668861 0.441519675365074 2.1874297715433 0.0523300000000001
0.05235 7.4918368771903 7.96064199279259 13.6351540402264 0.432893875880615 2.1860812715718 0.0523400000000001
0.05236 7.32478270078473 7.88398594244545 13.6946658943259 0.421592617159721 2.19181319652021 0.05235
0.05237 7.24181184438629 8.03916351088571 13.6968702583915 0.426040905100975 2.20391185821549 0.0523600000000001
0.05238 7.31480636012886 7.98403087441097 13.6442636988233 0.427822669563865 2.19983628042991 0.05237
0.05239 7.27449792393294 7.80152964185303 13.8212789802397 0.426453630154328 2.22106891050261 0.0523800000000001
0.0524 7.24121958636085 7.89500123983602 13.9611767664519 0.42204511196953 2.22020853465135 0.0523900000000001
0.05241 7.00218619672473 7.80307483097002 13.8528055701036 0.420229149155316 2.19428975136502 0.0524
0.05242 7.00404480140823 7.7548061000198 13.7455498682132 0.415328836960574 2.20720286659037 0.0524100000000001
0.05243 7.17393016924994 7.95683751745058 13.8288799066016 0.427712773319074 2.21555091520066 0.05242
0.05244 7.33174793508217 8.07776957982106 13.716065751625 0.435880391776239 2.18859316368071 0.05243
0.05245 7.36300955731027 7.95843847426769 13.7303654419265 0.431868041295877 2.21058465685477 0.0524400000000001
0.05246 7.3656863461671 8.20778549895177 13.6987302163555 0.432810137648348 2.20779610901151 0.05245
0.05247 7.65843920780176 8.3596717164225 13.4048091969524 0.448636279315121 2.16752458579295 0.0524600000000001
0.05248 7.63273896088959 8.29616320805223 13.3914461001041 0.447175224648211 2.1850748810881 0.0524700000000001
0.05249 7.399303964249 8.19985955194896 13.5375171420639 0.438485277513512 2.17176038757841 0.05248
0.0525 7.68609966627091 8.23378820676386 13.5092235276662 0.449833355401997 2.17282684717274 0.0524900000000001
0.05251 7.62554517170686 8.27984173581401 13.5045824302031 0.444947700115184 2.19040294135664 0.0525
0.05252 7.80926652482474 8.31617232818867 13.3654180845761 0.450214354173329 2.17435047430289 0.05251
0.05253 7.63223083791661 8.28709080916646 13.4618002033894 0.44621292274246 2.1821868973214 0.0525200000000001
0.05254 7.37512145655125 8.15659766704664 13.70040180983 0.436893712858341 2.21572155900107 0.05253
0.05255 7.07673165897033 7.89895930397727 13.852345758103 0.421922379226358 2.20553590259529 0.0525400000000001
0.05256 7.04899766537247 8.02606414205663 13.6531009252222 0.422117133199318 2.17323883105795 0.0525500000000001
0.05257 7.20406366705655 8.04732921283994 13.6969459694949 0.429805824060125 2.20428457106021 0.05256
0.05258 7.11995841909366 7.85891186545195 13.8519984937609 0.413917853489702 2.21594398821391 0.0525700000000001
0.05259 7.25803753350707 7.68904580652895 13.9646218618041 0.429051255247461 2.18433820109106 0.05258
0.0526 7.01891670853515 7.69268464400119 13.878878972704 0.414093978049413 2.19999908295524 0.0525900000000001
0.05261 6.94703828151253 7.82047054991606 13.8353317129682 0.412140966935587 2.20830251099611 0.0526000000000001
0.05262 7.16708747009047 7.85760609594624 13.9070169294667 0.42386887361508 2.20853293017468 0.05261
0.05263 7.40363427353066 7.89079258034785 13.8618595279499 0.432130049906012 2.21933535522152 0.0526200000000001
0.05264 7.68498850576535 8.03142551535229 13.7640550412174 0.43552856573453 2.23320361937448 0.0526300000000001
0.05265 7.3162556960627 7.9205180822728 13.9045582098454 0.429624207103558 2.20726067639226 0.05264
0.05266 7.46343097903639 8.00021355072072 13.7957357842422 0.429698719813711 2.2066209581275 0.0526500000000001
0.05267 7.46095673744939 8.08952226611295 13.7761845539702 0.44162322682162 2.20265289611816 0.05266
0.05268 7.50808060473069 8.16555561746388 13.6261882553297 0.443906732974412 2.19046573704789 0.05267
0.05269 7.68377326487144 8.25300690801949 13.6406370182821 0.454038368544579 2.18060459991362 0.0526800000000001
0.0527 7.66938393793875 8.18574770526876 13.6378589497357 0.436947317978824 2.21656379596849 0.05269
0.05271 7.75199138568586 8.29953376500251 13.6044992142357 0.45069120706548 2.20657276217312 0.0527000000000001
0.05272 7.73399633113397 8.25932296941835 13.5886627699812 0.450802206336828 2.19477895025108 0.0527100000000001
0.05273 7.41988939280152 8.07578637287999 13.6486045366318 0.440669861726849 2.18420890774407 0.05272
0.05274 7.60416972293871 8.27928303312064 13.5047145727019 0.45314434989607 2.16689770768624 0.0527300000000001
0.05275 7.46930782610056 8.24074978496451 13.7112472237697 0.441392752839065 2.20258608249404 0.05274
0.05276 7.42487589517716 8.2642527289715 13.7446051695143 0.443259089997783 2.20626665445544 0.0527500000000001
0.05277 7.54590530528614 8.3142954225345 13.7359978234579 0.44755367721109 2.21072284767152 0.0527600000000001
0.05278 7.17431089288167 8.11158330819813 13.7865430134726 0.422745140372055 2.21264328566115 0.05277
0.05279 7.25392713530678 8.03324708715527 13.8103625014988 0.424425060660721 2.22053291419619 0.0527800000000001
0.0528 7.48269178783103 8.07487619752805 13.7352499746778 0.435394683348791 2.22314612634041 0.0527900000000001
0.05281 7.41828211580704 8.0294767455553 13.7735613460063 0.431346181875264 2.22207984464774 0.0528
0.05282 7.38604539639213 7.94535168362632 13.8600318473296 0.427306771567066 2.21900647749269 0.0528100000000001
0.05283 7.3133605462261 7.88954844104952 13.8757279723799 0.425543609583438 2.20441061059358 0.05282
0.05284 7.320197651812 8.15837476332504 13.7418666572112 0.432221665739916 2.21632820039309 0.0528300000000001
0.05285 7.24487189804534 7.93467700635974 13.8331859203032 0.424060035442231 2.2328072259502 0.0528400000000001
0.05286 7.36727226795322 8.18923375402225 13.8371626819608 0.42780152443651 2.23325694263915 0.05285
0.05287 7.54486092817181 8.19483589758337 13.8543928525446 0.440775660658137 2.2074951497497 0.0528600000000001
0.05288 7.7648614937662 8.33659476293888 13.6432691842885 0.4491450031468 2.2178778761181 0.05287
0.05289 7.62332477276529 8.23888075770694 13.7150403748312 0.447857748391154 2.21024996516096 0.0528800000000001
0.0529 7.60807901473888 8.21451768191676 13.7577319934526 0.444815430645858 2.20444672350847 0.0528900000000001
0.05291 7.55525401787594 8.16281116290988 13.6930567878232 0.433965999630413 2.20946139919291 0.0529
0.05292 7.64050592807402 8.17613042552753 13.6959316185113 0.442671888037682 2.20683987839867 0.0529100000000001
0.05293 7.63750168581344 8.12091598701526 13.6985888101508 0.441036063399112 2.21454742133339 0.0529200000000001
0.05294 7.36884773063396 8.03871964280599 13.8201883509467 0.430098385013949 2.2170910043444 0.05293
0.05295 7.411169019176 8.05179439746802 13.7963665543529 0.435999791829942 2.2239873644314 0.0529400000000001
0.05296 7.34788089718951 8.01027821100363 13.8449688484473 0.435425090959335 2.21212694411351 0.05295
0.05297 7.1236084757941 8.0052415377899 13.8226567725398 0.426186292096196 2.21210032669417 0.05296
0.05298 7.1637547373171 7.97591257075737 13.9294792715495 0.422723074445311 2.22857729407701 0.0529700000000001
0.05299 7.44400673265969 7.97202636681479 13.8093561969515 0.432013935248932 2.22002885524512 0.05298
0.053 7.39668386541908 8.1163956806207 13.8370296729979 0.433049397112803 2.21551409576783 0.0529900000000001
0.05301 7.50250721054428 8.0534727124096 13.7353381397873 0.434228943457092 2.22807657994256 0.0530000000000001
0.05302 7.58863281278043 8.09034932426239 13.7956970327615 0.441262492821646 2.21756326381769 0.05301
0.05303 7.55675276791493 8.23110053616256 13.7048221514234 0.441068123792594 2.20212491329108 0.0530200000000001
0.05304 7.42531516060621 8.27461637960969 13.76224893035 0.443359404109491 2.22872123392759 0.05303
0.05305 7.65268157165882 8.33475543422522 13.7358633680743 0.447171581307828 2.21920743342701 0.0530400000000001
0.05306 7.63514700480804 8.24623070600069 13.8218937581734 0.455006394129041 2.21077728077848 0.0530500000000001
0.05307 7.5126809777576 8.28951595672963 13.7362343125009 0.441433343558677 2.21011544476361 0.05306
0.05308 7.3960703183248 8.39394595787908 13.730921480165 0.446283536911094 2.22128140390998 0.0530700000000001
0.05309 7.69232060431873 8.281216375972 13.6531122641777 0.447467457839547 2.19831066583691 0.0530800000000001
0.0531 7.831161527961 8.44067217281487 13.6365914596075 0.454146032490449 2.20697297234402 0.05309
0.05311 7.74885570447051 8.50041419415988 13.6337932617195 0.457792365856799 2.21190766601996 0.0531000000000001
0.05312 7.5914912047181 8.3381212457116 13.6153452240739 0.452040718090848 2.19676838943653 0.05311
0.05313 7.58376336245972 8.16348056646869 13.8123821449155 0.443140186822449 2.21616039456184 0.0531200000000001
0.05314 7.53431880435538 8.11546490240842 13.842697689864 0.434383599847633 2.22143672720079 0.0531300000000001
0.05315 7.42708525507227 8.23146204150877 13.800861204413 0.443112399749361 2.19878899948241 0.05314
0.05316 7.42107732599236 7.92404796525233 13.8087474201885 0.42812466249545 2.21132759152505 0.0531500000000001
0.05317 7.36959768148636 7.89980161695586 13.9970299447986 0.428868221640955 2.23050271553086 0.0531600000000001
0.05318 7.27175013215499 7.87078059110052 14.096259229413 0.426682364352386 2.24401438979647 0.05317
0.05319 7.33161160232477 7.70494310100294 13.997136703972 0.416804255843146 2.24110762047965 0.0531800000000001
0.0532 7.25813939900666 7.91080956736046 13.9241161677406 0.42862480056229 2.22104192398983 0.05319
0.05321 7.24507473401729 7.8976637369377 14.0321129516652 0.419683670533428 2.24265987760102 0.0532000000000001
0.05322 7.3204859861343 7.96827370474725 14.0311177003438 0.430509158082125 2.23205915795041 0.0532100000000001
0.05323 7.49168469443467 7.82913259001282 13.963289924666 0.43572165099123 2.2072987073987 0.05322
0.05324 7.50567020231399 8.08785076505494 14.0214454431435 0.439431918763655 2.24059536491671 0.0532300000000001
0.05325 7.51578369429355 8.19682100419157 13.8363733689361 0.441431572501162 2.24763350678553 0.0532400000000001
0.05326 7.56685446757944 8.48409106436347 13.7381561778529 0.455031739564545 2.20833757901065 0.05325
0.05327 7.59225904238414 8.37155523885333 13.6629371249249 0.442109550955016 2.20662551164748 0.0532600000000001
0.05328 7.89660798015715 8.56384128283635 13.6169383388088 0.469150702759264 2.19075557577216 0.05327
0.05329 7.96903871536409 8.59826546609821 13.5088138134329 0.460185664357946 2.20648405180847 0.0532800000000001
0.0533 7.88005845521953 8.52026183495116 13.6749819140109 0.4657982170721 2.20305211823822 0.0532900000000001
0.05331 7.9615709076207 8.26188234372775 13.6324768146641 0.451319189035698 2.21274705277862 0.0533
0.05332 7.78399348286712 8.3618669429973 13.7090433134507 0.44422264910777 2.23794664426663 0.0533100000000001
0.05333 7.80490728431746 8.28086470232177 13.799497178685 0.46116353186023 2.20200881591884 0.05332
0.05334 7.53973256334457 8.39407618138907 13.7977263360128 0.447161304386669 2.2264939283762 0.0533300000000001
0.05335 7.43073212428721 8.38591116946755 13.9106067933562 0.441073979947668 2.23393635559558 0.0533400000000001
0.05336 7.32489102442307 7.94070628228188 13.9775021096577 0.428576749045805 2.22622184465489 0.05335
0.05337 7.30118627954649 7.91891413092352 14.0729352868097 0.421181752178217 2.23451691270121 0.0533600000000001
0.05338 7.20391562298579 8.04906475274459 14.0378008797063 0.427164495828047 2.22760860702685 0.0533700000000001
0.05339 7.35211529679279 8.19675883593049 13.9332160325447 0.435266400483978 2.22253862143824 0.05338
0.0534 7.50478441506436 8.14494191667418 14.0714434938299 0.436969729964724 2.24359876592715 0.0533900000000001
0.05341 7.40852019472152 8.01298471604933 14.0744964639703 0.432279574295056 2.23667590282021 0.0534
0.05342 7.4431548147787 8.15544679715348 13.8401891431538 0.438619049976172 2.21916305862174 0.05341
0.05343 7.63415381005268 8.10669775888168 13.9394010880713 0.439707612437089 2.23929206728016 0.0534200000000001
0.05344 7.70894625863983 8.15170357260105 13.7980315376476 0.442693834049177 2.23256741269641 0.05343
0.05345 7.61116925763431 8.31339227029612 13.8536535401552 0.456913256504753 2.22912172558201 0.0534400000000001
0.05346 7.6356936556209 8.04982131619165 13.8496697653045 0.441222348035861 2.22340287937701 0.0534500000000001
0.05347 7.69455240774382 8.34757006684345 13.7409592676161 0.448819429146762 2.21020560534602 0.05346
0.05348 7.70731819720631 8.47528782308259 13.8198803204483 0.453359676349721 2.2379266990541 0.0534700000000001
0.05349 7.7331678831897 8.35067600774646 13.7719320280564 0.449922131841989 2.21688896741117 0.05348
0.0535 7.88711648927092 8.42386071946662 13.8418897500555 0.452031360145998 2.24849780304826 0.0534900000000001
0.05351 7.70621832736098 8.32603514554606 13.7712937651348 0.453366682351796 2.21797982823558 0.0535000000000001
0.05352 7.68952045543703 8.19434029580616 13.8456913826591 0.442300278511548 2.22496146312445 0.05351
0.05353 7.55855845440767 8.29677658645761 13.9222609284089 0.448271733010561 2.23339590247782 0.0535200000000001
0.05354 7.72818253117556 8.28205558728072 13.8260569053319 0.445273984931808 2.23191482049609 0.0535300000000001
0.05355 7.45606727574475 8.19175929377908 13.8531458912366 0.432888602047319 2.24369915918619 0.05354
0.05356 7.42081005005145 8.0400945764736 14.0718502641499 0.435033464547448 2.25278040740867 0.0535500000000001
0.05357 7.47833522423314 7.97311284153433 14.0025969427486 0.438324355893884 2.22811675400061 0.05356
0.05358 7.3670375092414 8.16191662124027 14.0382734047114 0.436646771307929 2.26032434039977 0.05357
0.05359 7.55507514957928 7.947469545311 14.0781265985345 0.428788593467361 2.24748458011111 0.0535800000000001
0.0536 7.38217671693016 8.03152426830736 14.1201664652339 0.432874528063416 2.22841341878819 0.05359
0.05361 7.41285524802061 8.2731425150004 13.9749780955388 0.440688595482248 2.23896390561461 0.0536000000000001
0.05362 7.2818299341097 8.10837774201093 13.9608894336246 0.429577119364764 2.24270221202505 0.0536100000000001
0.05363 7.3045523674286 8.26148973138497 14.0116885951747 0.42850107945823 2.26181353219762 0.05362
0.05364 7.6402964777597 8.34290995175753 13.850941189847 0.449224002512866 2.23458577481755 0.0536300000000001
0.05365 7.57027016816328 8.44558092005085 13.8561176622756 0.449033430400428 2.23094925337152 0.05364
0.05366 7.69384963985715 8.52327829269061 13.8153857638198 0.452924159460374 2.2425289310046 0.0536500000000001
0.05367 7.7678288336457 8.55511540563271 13.7098163713938 0.457944386110352 2.23511552567836 0.0536600000000001
0.05368 7.78931037374674 8.63608352564124 13.7250834157258 0.459642723436894 2.25527339542637 0.05367
0.05369 7.74764054088701 8.43591956000332 13.8696287054964 0.458904420865433 2.23611803786871 0.0536800000000001
0.0537 7.89561523071251 8.34450149547965 13.6635120025782 0.453171275421974 2.22510936239836 0.0536900000000001
0.05371 7.87998948136219 8.4102728982874 13.8234138679197 0.461432276886868 2.2263080647951 0.0537
0.05372 7.73716485857076 8.28948575088939 13.8617522534727 0.453071039224483 2.23424237253963 0.0537100000000001
0.05373 7.58908565778385 8.36425966895254 13.8904483739107 0.453664486459334 2.24830839732796 0.05372
0.05374 7.65488187357722 8.46699334300108 13.8815952376868 0.451449902169123 2.2553025280682 0.0537300000000001
0.05375 7.7185674020187 8.25199147568871 13.8927090151652 0.451941458860872 2.21820185840962 0.0537400000000001
0.05376 7.60943969109004 8.1786238236084 13.9432445580108 0.444884512500068 2.23992193010696 0.05375
0.05377 7.58797024863036 8.12464173872732 14.0270614412292 0.439120447342536 2.26497569489059 0.0537600000000001
0.05378 7.61332857399912 8.01876682841774 14.0890216320483 0.440451093523751 2.23221477544044 0.05377
0.05379 7.39081337328264 7.88174379191447 14.070176211253 0.426899179503289 2.24201144041603 0.05378
0.0538 7.39047947071006 7.8837354267341 14.1996475027982 0.430407814389608 2.25105711070542 0.0537900000000001
0.05381 7.46714519150815 7.98210954563618 14.1490506679959 0.43086317796712 2.27043219834547 0.0538
0.05382 7.35888688097504 8.25092514097921 13.9717478157721 0.436414088076867 2.25832222195621 0.0538100000000001
0.05383 7.51963918294192 8.12731887255275 14.0166209217882 0.443681155279633 2.25592502934845 0.0538200000000001
0.05384 7.60682283228152 8.22983135611358 14.1595707832931 0.448766811778424 2.27204606679778 0.05383
0.05385 7.40296835715175 8.20191366486348 14.067937759795 0.43617133610461 2.26902763862562 0.0538400000000001
0.05386 7.7560964714752 8.2333534803726 13.9016609929379 0.451358427508831 2.24883250308682 0.05385
0.05387 7.61642335592167 8.3713060081533 13.8780268952692 0.442359596297348 2.24606160335594 0.05386
0.05388 7.76984410334691 8.6662572744196 13.7536528559216 0.463391172911259 2.24031914550527 0.0538700000000001
0.05389 7.89619489718494 8.64841371740389 13.7690769896888 0.464560127018433 2.23572414115219 0.05388
0.0539 7.82181076382354 8.70265434839796 13.6896801080979 0.461525600608532 2.23696499438893 0.0538900000000001
0.05391 7.99291634541426 8.70455724544056 13.8046523397468 0.470727313796588 2.2458800332732 0.0539000000000001
0.05392 7.81646075710052 8.62314500311381 13.7873815170195 0.459874216793135 2.24008341127411 0.05391
0.05393 7.78845571754313 8.61046751221425 13.7925269219988 0.460114792128132 2.24580149106742 0.0539200000000001
0.05394 7.76870184682743 8.41255919239221 13.8468149219371 0.452167887532638 2.23996896038774 0.05393
0.05395 7.65036775664173 8.38724060369537 14.0057712910605 0.457199095940876 2.230164061258 0.0539400000000001
0.05396 7.58240569236474 8.50293068418799 13.9279108363821 0.448679335706698 2.26098023562174 0.0539500000000001
0.05397 7.56613374473863 8.44372367786302 14.0056387597368 0.447272265537239 2.2663066672303 0.05396
0.05398 7.6111706580308 8.33604715162496 14.0340037202469 0.455239128510936 2.24759104871966 0.0539700000000001
0.05399 7.46110663611016 8.29717585791373 14.0167346180331 0.435604646802523 2.28229026945482 0.05398
0.054 7.35187174390054 8.12945725830898 14.1894336581108 0.438841867311959 2.24665700462644 0.05399
0.05401 7.29978940742754 8.13545407519119 14.2427726701627 0.430318611800855 2.26433156962014 0.0540000000000001
0.05402 7.46564323950535 8.2766369007037 14.1199552633579 0.436587859307195 2.25901872845915 0.05401
0.05403 7.39834468174051 8.26509043164013 14.0893590350597 0.437356487715579 2.27123180184473 0.0540200000000001
0.05404 7.76548267130968 8.22077133728634 14.0731882187106 0.448883261899944 2.25628069689812 0.0540300000000001
0.05405 7.70216988601127 8.23804545717279 13.9290885637853 0.447968554376554 2.25592034914872 0.05404
0.05406 7.95948323507722 8.28919365666437 14.0212870413573 0.464095596719197 2.23545326642852 0.0540500000000001
0.05407 7.78676697161749 8.37476506097709 14.0245409681205 0.448454970547365 2.25479097106124 0.05406
0.05408 7.76250663878056 8.49800950229269 13.8918637910017 0.468544489762049 2.22851725836506 0.05407
0.05409 7.76860483523807 8.44378313005825 13.8951928368858 0.44954575492247 2.26283214898826 0.0540800000000001
0.0541 7.71682382903401 8.3447149458165 13.9650735296696 0.449817143660623 2.27064397025999 0.05409
0.05411 7.57490195567682 8.28620240891976 14.0758888901314 0.44926083557425 2.25642345259435 0.0541000000000001
0.05412 7.67021030597673 8.53929820293115 13.9616273130455 0.458899391693905 2.26163134466001 0.0541100000000001
0.05413 7.59698695591816 8.50126556374816 14.0122634087481 0.459164852856141 2.2483311447796 0.05412
0.05414 7.40682212432537 8.31065182875203 14.1685951616541 0.440783574599897 2.2589258446396 0.0541300000000001
0.05415 7.92513733604416 8.41428841488533 13.931254299345 0.46316938333363 2.2382383760381 0.05414
0.05416 7.77670814144521 8.59726110261971 14.0058110478869 0.458583466996142 2.26325875567207 0.05415
0.05417 7.64412582412359 8.42104745653323 13.9342891793981 0.452397281756425 2.26580007420448 0.0541600000000001
0.05418 7.60485424695462 8.41681423936164 14.1454793338592 0.450338049311836 2.26198410689264 0.05417
0.05419 7.72879831169523 8.3208321858566 14.0928975713409 0.452279761284698 2.25704517778644 0.0541800000000001
0.0542 7.85527381511841 8.34305830942392 13.981911984396 0.453772034256265 2.26431861204162 0.0541900000000001
0.05421 7.54528525256492 8.32577165568372 14.1431856679777 0.440901922780057 2.26769240646367 0.0542
0.05422 7.68989271078346 8.59185095830306 13.8500644248413 0.457018241355318 2.24899409156047 0.0542100000000001
0.05423 7.69387882806235 8.47451213860675 14.1109235984807 0.45418888053732 2.27409106080969 0.05422
0.05424 7.62579614758561 8.32178797915546 14.0579402534926 0.447265349363429 2.24581226444301 0.0542300000000001
0.05425 7.75024599779965 8.40012271855866 14.1380986929447 0.452378062639392 2.2773614210494 0.0542400000000001
0.05426 7.75307658517187 8.39334024333414 14.1087939606769 0.457152177272404 2.25579043716128 0.05425
0.05427 7.71231816575187 8.47007562561575 13.9504488805266 0.444857469297337 2.25800338710512 0.0542600000000001
0.05428 7.91486506687675 8.51655671231249 13.8827491813098 0.460365819381005 2.25379898561835 0.0542700000000001
0.05429 7.99830006191475 8.52829786667804 13.8014525417504 0.457260907863783 2.25718004830813 0.05428
0.0543 7.87452783494145 8.58010160765448 13.9180967239857 0.462615130806736 2.23430058112615 0.0542900000000001
0.05431 8.00841940212744 8.56756003729149 13.8888889269796 0.468776886894842 2.22465201311732 0.0543
0.05432 7.87647501975228 8.41938060773542 13.8998415611798 0.455796327596522 2.24619075338559 0.0543100000000001
0.05433 7.91103334549461 8.65061660470036 13.9585093894524 0.461408702936268 2.27725786914537 0.0543200000000001
0.05434 7.87350230123102 8.36163293941737 14.058706741389 0.447754442056625 2.2864072061629 0.05433
0.05435 7.64273485894268 8.39566926612478 14.1904239119649 0.447079277572648 2.27797536039967 0.0543400000000001
0.05436 7.61868189226912 8.4894138999335 14.2715428618998 0.454183054865953 2.28434692883282 0.0543500000000001
0.05437 7.54996977838925 8.19377476210327 14.0862376904477 0.4407974827332 2.26163196565299 0.05436
0.05438 7.54340788865791 8.23165358847314 14.1997340671188 0.440761443814458 2.27078391510551 0.0543700000000001
0.05439 7.52621782558439 8.21858688342658 14.2872452925359 0.442721273968335 2.27543781433841 0.05438
0.0544 7.31683383067229 8.16986462806472 14.2912981519669 0.430506624080474 2.28839414426178 0.0543900000000001
0.05441 7.58102339769955 8.25271439229764 14.2029046492798 0.438953968712789 2.27677243194343 0.0544000000000001
0.05442 7.73810812732438 8.29406711205928 14.2050300197428 0.455554604494833 2.28698985217987 0.05441
0.05443 7.48823652496306 8.51514218895109 14.203679736448 0.447522538507492 2.28043545416312 0.0544200000000001
0.05444 7.58397472620579 8.37265817821267 14.1510825869786 0.449915142767472 2.2532380522465 0.05443
0.05445 7.7041028347968 8.4097615246252 14.2253320158338 0.452119841951137 2.27903566177964 0.05444
0.05446 7.77595780088791 8.34043727421827 14.2317941013596 0.450155957430092 2.27615985866047 0.0544500000000001
0.05447 7.94740302064218 8.48652827236115 13.8661283904663 0.45789131659663 2.24246976908971 0.05446
0.05448 7.81519940162208 8.59250718213869 14.067928657751 0.455877604161383 2.28368019440406 0.0544700000000001
0.05449 7.93299643076456 8.72097913886307 14.0093051529615 0.469292342841809 2.26222838787774 0.0544800000000001
0.0545 8.11868837306999 8.72406580652615 13.9347912478731 0.472972807676395 2.25687493345793 0.05449
0.05451 8.12320638392985 8.67353847544294 13.8181745193747 0.473878274958516 2.23222557457116 0.0545000000000001
0.05452 8.13337461254114 8.70659469796147 13.999236075971 0.473896042308846 2.2513591247981 0.05451
0.05453 7.96115336293477 8.65704205722506 14.001546112995 0.474854608000769 2.23482114751695 0.0545200000000001
0.05454 7.86272639762066 8.38383313460676 13.9814381256014 0.458575076926407 2.26662743073726 0.0545300000000001
0.05455 7.81600805308762 8.39331136564128 14.0811992777087 0.45698123212152 2.27155409613349 0.05454
0.05456 7.60875497037979 8.49475307962895 14.1654986310751 0.445117683249526 2.28970509599042 0.0545500000000001
0.05457 7.7728953892848 8.40957649405012 14.1709616076281 0.444963552910997 2.29802091936012 0.0545600000000001
0.05458 7.91423243379326 8.37135275503438 14.1674025464071 0.463938416652928 2.25531389086381 0.05457
0.05459 7.64190122698136 8.26947741675545 14.2669031050849 0.447896756821709 2.29403269790099 0.0545800000000001
0.0546 7.80908346194446 8.39550886901223 14.2112762015911 0.459227169868472 2.28556270514199 0.05459
0.05461 7.5065448944448 8.20529949853401 14.2688864966553 0.437512292626505 2.26589997325722 0.0546000000000001
0.05462 7.62319282427108 8.41652876779998 14.2807384157907 0.454307285015457 2.26299267994879 0.0546100000000001
0.05463 7.73698307693472 8.38050515085177 14.2245304719848 0.455752556237487 2.28659684245769 0.05462
0.05464 7.42802809872523 8.29528641503996 14.3058720285138 0.437156078558381 2.29531462202906 0.0546300000000001
0.05465 7.7028363035885 8.23286319360338 14.2155990653626 0.450111930024462 2.29230030080354 0.0546400000000001
0.05466 7.76491034147232 8.30063003319873 14.2442507076093 0.448378234869444 2.29633977152613 0.05465
0.05467 7.86004425012864 8.4380427445616 14.2155339248237 0.452889322017637 2.27806778011634 0.0546600000000001
0.05468 7.96946333291973 8.61782240112143 14.0797875950585 0.464832746550764 2.26167538266402 0.05467
0.05469 8.02413741058187 8.49433342422454 14.0396000005171 0.461655388982009 2.26904718648042 0.0546800000000001
0.0547 8.00854815849014 8.73765333563745 13.9295390131572 0.468323880895414 2.26114868522134 0.0546900000000001
0.05471 8.12498384908474 8.7932814093212 13.9456133138143 0.478799725486249 2.27809435361543 0.0547
0.05472 8.04794321212214 8.77604690519652 13.9909252805803 0.47416425009257 2.26945371385931 0.0547100000000001
0.05473 7.91365809894661 8.74218996143577 14.118389554257 0.480680190651668 2.25945183330377 0.0547200000000001
0.05474 7.80315880014836 8.6771100758842 14.1477415605851 0.457523366601952 2.29186179102297 0.05473
0.05475 7.84421163024336 8.54038587083039 14.1770255931218 0.461508216718666 2.27551770010758 0.0547400000000001
0.05476 7.74671279227313 8.4037853803738 14.1735248469861 0.455315070889314 2.26340887883985 0.05475
0.05477 7.70823086239731 8.54738060077678 14.1382598123111 0.453472039115635 2.28923444725691 0.0547600000000001
0.05478 7.66589264863928 8.45645560324901 14.2558075518923 0.448874389850194 2.30755857966192 0.0547700000000001
0.05479 7.74903010576447 8.47481870508674 14.367162892737 0.454747898104552 2.30462151443375 0.05478
0.0548 7.80954216845859 8.4261777746719 14.2181428358454 0.460253152605626 2.2670562264717 0.0547900000000001
0.05481 7.91744151133907 8.40968445525447 14.1181386018737 0.459618642829041 2.27800473484876 0.0548000000000001
0.05482 7.82255745486579 8.60445295780556 14.1831534073839 0.462861659737865 2.28102887066376 0.0548100000000001
0.05483 7.66311529063721 8.58120325979211 14.2323433929287 0.462439460028081 2.26863078949836 0.0548200000000001
0.05484 7.9156003347608 8.63742872462005 14.0984719009565 0.460201927728847 2.27840151597226 0.05483
0.05485 7.91064562071056 8.62843546032714 14.2028713563041 0.461209443035762 2.27775955012669 0.0548400000000001
0.05486 7.92852532614974 8.71174193351034 14.1282972641253 0.46532944714025 2.27873825084541 0.0548500000000001
0.05487 7.89745791319297 8.67565142667303 14.1558057641219 0.455476846012133 2.29123802283964 0.05486
0.05488 7.92533443421606 8.49398287329631 14.1128997978673 0.460087463295788 2.29329572356275 0.0548700000000001
0.05489 8.02150630914664 8.67873720300508 14.1787866058651 0.477289837110665 2.26798389476577 0.05488
0.0549 8.11645487069095 8.74932818903279 14.0830483544764 0.47190989957932 2.28828290487781 0.05489
0.05491 7.93078718801712 8.74183539131882 14.0005583621217 0.463330994088227 2.27749714251918 0.0549000000000001
0.05492 8.12367128879343 8.73456574817122 14.0296456427294 0.473455343592871 2.27807191147611 0.05491
0.05493 8.20713973832461 8.76833570517197 14.0065070732964 0.47327044936003 2.26406481024376 0.0549200000000001
0.05494 7.9502508232738 8.66473883916212 14.0953151798666 0.459865446485355 2.29704381549028 0.0549300000000001
0.05495 7.88919447768756 8.62108242521477 14.1926890555501 0.462513180034141 2.2716329316496 0.05494
0.05496 7.6343919467907 8.33616264883294 14.3925933817531 0.44625868826183 2.30245605073878 0.0549500000000001
0.05497 7.60660034543243 8.45233991841186 14.3768144035256 0.452248156599829 2.29519193513088 0.05496
0.05498 7.65342830070126 8.5707371012496 14.3134009129 0.450913663738373 2.29883069195301 0.0549700000000001
0.05499 7.66207751128042 8.46779323896279 14.4107772572789 0.450488578382454 2.31599637725724 0.0549800000000001
0.055 7.75606681056595 8.41983686968775 14.3782924394677 0.458744738950382 2.3030294196475 0.05499
0.05501 7.5560731339333 8.38374232643192 14.3963920909944 0.452133501922647 2.29639425858424 0.0550000000000001
0.05502 7.61081627657794 8.40658212081439 14.3126303472165 0.452744084457006 2.29672213007106 0.0550100000000001
0.05503 7.55985930122122 8.42122601721463 14.3319521162993 0.444815509874 2.31821246037562 0.05502
0.05504 7.77793795219336 8.54759325049694 14.2172946117108 0.459503790817497 2.29068145544228 0.0550300000000001
0.05505 7.76810973384317 8.57649078238641 14.2926778896822 0.462304208045653 2.29049336065593 0.05504
0.05506 7.86409753337895 8.6509492506454 14.1864702393789 0.466210196314505 2.28522879728674 0.0550500000000001
0.05507 7.96847395463692 8.93357953909704 13.9470876511953 0.475913413850962 2.26257752014061 0.0550600000000001
0.05508 8.05806756553605 9.0234230647796 14.0467016438583 0.485377199121352 2.27803113247069 0.05507
0.05509 8.22709397560407 8.89205683073752 14.0066640918989 0.476220361887893 2.28561232365146 0.0550800000000001
0.0551 8.32732241616896 8.96482593439881 13.9152029143002 0.487803409268349 2.27649874012388 0.0550900000000001
0.05511 8.16008129526619 8.76337144125594 13.994072906069 0.474950473798373 2.29222732209631 0.0551
0.05512 8.25453616326682 8.94526681576499 13.9782647027253 0.478147836537722 2.29111777430091 0.0551100000000001
0.05513 8.12013946991422 8.8035759967605 14.185524868415 0.477448433699256 2.28016723731325 0.05512
0.05514 7.86075710343351 8.72100117164737 14.1281664676503 0.462513098273427 2.29269698942636 0.0551300000000001
0.05515 7.87902371723183 8.77033356341529 14.0933401316471 0.470980034681893 2.28984847231778 0.0551400000000001
0.05516 7.92892680507502 8.55267911567755 14.2851405696147 0.465563473235146 2.30289096429697 0.05515
0.05517 7.55807284580338 8.47024662797132 14.4529281425398 0.452380956299432 2.31468277224737 0.0551600000000001
0.05518 7.59504795318957 8.59967945062361 14.3872116234938 0.462052214049873 2.29747966641275 0.0551700000000001
0.05519 7.6112028875657 8.51716440191658 14.4455855978715 0.447793412245471 2.33271389910728 0.05518
0.0552 7.69568981613093 8.27253988221861 14.4522161901099 0.44315362377227 2.32401451269815 0.0551900000000001
0.05521 7.83368141031822 8.35727648371962 14.3787842617961 0.456493021878545 2.29994657072675 0.0552
0.05522 7.7427349080821 8.43723103312607 14.3199013949285 0.442920693986173 2.32063226650076 0.0552100000000001
0.05523 7.79291228797482 8.44715719567928 14.4495008520197 0.454862889359047 2.32396059734377 0.0552200000000001
0.05524 7.82435642934964 8.45589363757239 14.3553270272505 0.457032409356489 2.29231685651097 0.05523
0.05525 7.78590883858518 8.64407955664898 14.2471759540118 0.452185276500662 2.30016822385145 0.0552400000000001
0.05526 7.80789169336823 8.62417769593571 14.2537013239302 0.456447266046486 2.31492231120826 0.05525
0.05527 7.75570903144711 8.54772810626175 14.3415648343459 0.458224031951845 2.31581801146657 0.0552600000000001
0.05528 7.91230120376267 8.58733849702836 14.2905032987132 0.461223819315519 2.30600433522068 0.0552700000000001
0.05529 7.93512687715786 8.5970939292341 14.2405396106726 0.46494471278305 2.30830924538091 0.05528
0.0553 7.96878736575491 8.73237991687944 14.049739584023 0.47480106428373 2.28278528273582 0.0552900000000001
0.05531 8.17610906889982 8.8474028862282 13.9824532074982 0.468351356647568 2.31194967948119 0.0553000000000001
0.05532 8.24530016296538 8.84439448822906 13.9959681892668 0.482612797769923 2.28812912810154 0.05531
0.05533 8.26684302674409 9.08041693519542 13.9917691931788 0.487403403009891 2.28709373046407 0.0553200000000001
0.05534 8.20278740699229 8.79068447282165 14.205219920309 0.471365910246597 2.30088014039958 0.05533
0.05535 8.30364538640364 8.77825094445428 14.1079341366168 0.482598482904104 2.27295005602765 0.05534
0.05536 8.02952823215749 8.80343579832236 14.1622111081648 0.46910326112691 2.31215139801674 0.0553500000000001
0.05537 8.09718184611114 8.6690752623556 14.2501654482007 0.473910808524733 2.29399206799933 0.05536
0.05538 7.90632818164559 8.74287763508194 14.2938868719212 0.468957773140075 2.30438472314539 0.0553700000000001
0.05539 7.96859361922723 8.66996288441839 14.2806750897324 0.463130828105403 2.30808736913527 0.0553800000000001
0.0554 7.87279072175142 8.70327696686525 14.3506932706589 0.465591106621908 2.30143287667007 0.05539
0.05541 7.59837496131114 8.52743596354283 14.4579285200276 0.44828854994509 2.30735245941278 0.0554000000000001
0.05542 7.63960384101129 8.43567646810191 14.4449239930025 0.452355594002893 2.32685605242424 0.05541
0.05543 7.76582235799239 8.44255999594122 14.5003050654647 0.459647766343463 2.31034172551982 0.0554200000000001
0.05544 7.8348619887809 8.23689102493205 14.3841884834649 0.452687143136384 2.29603902105021 0.0554300000000001
0.05545 7.65122622563598 8.52854856308697 14.4390449271684 0.453986995957762 2.3243245172887 0.05544
0.05546 7.67809929908521 8.55678456765174 14.3162615236858 0.455663186057222 2.31868540125875 0.0554500000000001
0.05547 7.6933206598828 8.65128033315723 14.3371049128565 0.459714806233991 2.31077214938236 0.0554600000000001
0.05548 8.01420159868148 8.72666886327612 14.220881883007 0.468907372363769 2.29646953076342 0.05547
0.05549 8.0763338428016 8.75401433879584 14.1812256347693 0.472881201723142 2.30847909400747 0.0554800000000001
0.0555 8.35833252291259 8.89174802938358 14.0267341544178 0.482022706480711 2.27120901873273 0.05549
0.05551 8.36848078308512 9.00216989005652 13.9502248321923 0.488811660008041 2.28129461809445 0.0555000000000001
0.05552 8.42630208888023 9.01789336501013 13.9053723220528 0.490727277804093 2.28521993831637 0.0555100000000001
0.05553 8.2940575995237 9.01412226278968 14.0004228047096 0.484818271763798 2.28402724855105 0.05552
0.05554 7.95920794099143 8.73299032335781 14.1938428132636 0.466796588898044 2.29415770278093 0.0555300000000001
0.05555 8.0846728731155 8.94271468513498 14.1310969671891 0.476604510556833 2.31098000751432 0.0555400000000001
0.05556 8.07655285737135 8.85718329880303 14.2593041858783 0.472274881565816 2.30280767821005 0.05555
0.05557 8.0172361567336 8.76782933049463 14.2474188403802 0.474850440095343 2.30547311207224 0.0555600000000001
0.05558 7.98568021351004 8.50960065784334 14.3228617813776 0.459018311140914 2.3342789272425 0.05557
0.05559 7.7899710583223 8.5176634370295 14.4557672372563 0.451882074494364 2.32591985969478 0.0555800000000001
0.0556 7.63349469322212 8.42067748172973 14.4940549771196 0.450502947559239 2.33027071966293 0.0555900000000001
0.05561 7.89092748143359 8.39963545442957 14.5213567768109 0.454596582507602 2.33426052517907 0.0556
0.05562 7.85083810032916 8.5167828802435 14.3204512797026 0.462001680983774 2.30647538494291 0.0556100000000001
0.05563 8.04091068449185 8.58560151638931 14.4185641172806 0.464669456416766 2.33174004138714 0.0556200000000001
0.05564 7.91424810155203 8.58236286916205 14.3799469348697 0.460772368513534 2.32406196831303 0.05563
0.05565 7.88628531177191 8.51900632200606 14.3882458108677 0.461779327235444 2.31660239521542 0.0556400000000001
0.05566 7.99442025267807 8.62058987648234 14.4050210278856 0.469273146106758 2.31456326590568 0.05565
0.05567 7.93493515041902 8.61676894358146 14.4154413765807 0.46603292068173 2.32357773337885 0.0556600000000001
0.05568 7.87729941649418 8.49822148036995 14.457756476761 0.452395664916782 2.32771100543979 0.0556700000000001
0.05569 8.11767382753498 8.77487953933169 14.4383723117314 0.47243100971689 2.32826977343226 0.05568
0.0557 8.23802825228834 8.89692144382677 14.2661805470136 0.485378916199456 2.30565551664234 0.0556900000000001
0.05571 8.07776815176186 8.90595637591937 14.237525399634 0.47074937591049 2.33670324382802 0.0557
0.05572 7.99523995667286 8.92236292158912 14.1996653308075 0.473206514124412 2.30901781197517 0.0557100000000001
0.05573 8.20386697816689 8.98339024623731 14.2579881100138 0.485844552952685 2.3085097360466 0.0557200000000001
0.05574 8.14091073067435 9.02614157586313 14.2260864577228 0.485424850068744 2.30139622827612 0.05573
0.05575 8.15913270653262 8.81179655861227 14.1771059905473 0.477794447036131 2.30129064110077 0.0557400000000001
0.05576 8.15646821915825 8.85678742500962 14.1459287941816 0.476595077903661 2.29965204626087 0.0557500000000001
0.05577 8.06172109681807 8.92591074318555 14.2974148378215 0.471537161243494 2.31614257464436 0.05576
0.05578 8.18434511664263 8.88714700925559 14.382758020426 0.481881491208375 2.32628513044048 0.0557700000000001
0.05579 8.2532817718388 8.89169078135608 14.2838487602944 0.481859487300666 2.31808263955958 0.05578
0.0558 8.34230179797218 8.85619439939777 14.1488044082414 0.487400622247966 2.32422785008599 0.05579
0.05581 8.16472324003761 8.65574047810236 14.3750876638138 0.471542078390581 2.32177633388248 0.0558000000000001
0.05582 8.04338499106392 8.65955575642633 14.4421658359258 0.469388648179231 2.30975379350526 0.05581
0.05583 7.95170745349105 8.65722936089949 14.4158343536151 0.468059066797277 2.3138169131075 0.0558200000000001
0.05584 7.91902135399601 8.6138588572725 14.4147010344939 0.458961134064 2.34049474722299 0.0558300000000001
0.05585 7.81959951842525 8.45478031663648 14.5478537354685 0.44634069457075 2.35037928155249 0.05584
0.05586 7.9799590447954 8.64705617603253 14.5640004115654 0.472182726195215 2.33118401902146 0.0558500000000001
0.05587 7.71657532336086 8.57891899245782 14.6041144400211 0.458191493876248 2.32688814659063 0.05586
0.05588 7.64514096110067 8.51276580438799 14.4963204454524 0.452965627856358 2.33361894440517 0.0558700000000001
0.05589 7.7833945042947 8.60068980042676 14.4976691276034 0.457744740836529 2.34381514531169 0.0558800000000001
0.0559 8.07021631545733 8.47336205827593 14.5172439963233 0.4655851385816 2.33519165054162 0.05589
0.05591 8.01104791953706 8.49392298454409 14.6380063882777 0.454996037501833 2.33175734788545 0.0559000000000001
0.05592 8.01285128272475 8.77218754463905 14.4218349257253 0.47669135996635 2.30780853749233 0.05591
0.05593 8.24041096617291 8.98388317465145 14.1607119637501 0.479872801742272 2.31041572726294 0.05592
0.05594 8.45490599243722 9.08581289703853 14.1447125407062 0.495228217088203 2.31084806568949 0.0559300000000001
0.05595 8.39366815123128 9.05217374587528 14.2301756708743 0.494843402436786 2.30126845018337 0.05594
0.05596 8.04132732768226 8.83393685232493 14.435805207896 0.471546763864178 2.32171485734528 0.0559500000000001
0.05597 8.1759854326655 8.77384619155239 14.2006652157015 0.472926311172675 2.2985277111298 0.0559600000000001
0.05598 8.18192279666875 8.71336006312731 14.2446265637766 0.474959440266809 2.31417871765167 0.05597
0.05599 7.9619763111811 8.87593465430653 14.2697573027804 0.475523736778405 2.31534123056576 0.0559800000000001
0.056 8.01349372087281 9.00822961171861 14.2936756820337 0.474067239079508 2.3445462563784 0.05599
0.05601 8.16629210605043 8.99263395120379 14.3573131972987 0.48033160936018 2.34256139471995 0.0560000000000001
0.05602 8.0726072831258 8.88589390295738 14.4622994798387 0.476949362064957 2.33076431467439 0.0560100000000001
0.05603 7.91065603677248 8.80017297836655 14.4793229238006 0.467082869369782 2.32683645341198 0.05602
0.05604 7.90998659976123 8.8396361832737 14.4275906663709 0.470874303997993 2.32455479426939 0.0560300000000001
0.05605 8.13145581686813 8.93017550204299 14.4618847788689 0.482190480976688 2.31972574472235 0.0560400000000001
0.05606 8.09065369378538 8.72464764692035 14.4859310989396 0.477154757416173 2.31645499873367 0.05605
0.05607 8.12565348225513 8.93913060922699 14.3678816435832 0.475433155524193 2.3294213781036 0.0560600000000001
0.05608 8.05316623984034 8.97041821331116 14.3759696226547 0.479341407874648 2.34076611102322 0.05607
0.05609 8.2082004362678 8.79083347747076 14.4188911738457 0.479949439329531 2.32862660846661 0.05608
0.0561 8.12112247215171 8.77164870695963 14.4110504637492 0.467689357456695 2.34330152157313 0.0560900000000001
0.05611 8.09313789976299 8.92801567810754 14.4040558456707 0.481628023094373 2.33399258455002 0.0561
0.05612 8.09173388694824 8.96297016151461 14.3874569955947 0.478392334449464 2.34625483655368 0.0561100000000001
0.05613 8.08382506702877 8.88552282615496 14.3382367137707 0.471873523799281 2.32867677958619 0.0561200000000001
0.05614 8.09583015900847 8.82160066322398 14.4389267399312 0.470737816349894 2.34611109553119 0.05613
0.05615 8.09637152064384 8.80909967577504 14.5302324242528 0.478469722080589 2.34165386686626 0.0561400000000001
0.05616 7.93553719361288 8.71232492863114 14.4525975407242 0.470377555686599 2.33592451115277 0.05615
0.05617 7.96836161204332 8.70482508620471 14.5186592752039 0.466719268914887 2.35664152448767 0.0561600000000001
0.05618 8.14751650267712 8.79301669449858 14.5176833930786 0.479794388264446 2.35209273497991 0.0561700000000001
0.05619 8.11627930195267 8.96813620876485 14.422444279 0.474243717035452 2.35685240213238 0.05618
0.0562 7.86984681293771 8.66765189609957 14.6404309573834 0.468643128813922 2.33731814421683 0.0561900000000001
0.05621 8.07992798952931 8.84432815586516 14.4021470919795 0.47093772413955 2.33031373088952 0.0562000000000001
0.05622 8.09460814745637 8.79742807083002 14.4514727617875 0.471375635023101 2.33259727307666 0.05621
0.05623 8.22977662805729 8.90556125338211 14.4247354743916 0.483606266175488 2.32450750502119 0.0562200000000001
0.05624 8.12721884654308 8.90270729469008 14.3184188902906 0.477919575250637 2.3370486297134 0.05623
0.05625 8.33134541363166 8.9303646592642 14.4033704734888 0.481377528057929 2.34599256202041 0.0562400000000001
0.05626 7.99829049564623 9.06995801573141 14.3936056941015 0.483760203607774 2.32227316714967 0.0562500000000001
0.05627 8.14582005887254 9.12748980320459 14.2941675167457 0.480975990321333 2.32649580051746 0.05626
0.05628 8.10456495840308 9.02118091643205 14.3609652400714 0.488949249182179 2.3341608916504 0.0562700000000001
0.05629 8.21643110951652 8.91663272129182 14.3255163519924 0.483828940070571 2.31129477176085 0.0562800000000001
0.0563 8.14879111579971 8.97494143069513 14.3742578311306 0.475209929196179 2.34729780222352 0.05629
0.05631 8.00498657254818 8.90734564313224 14.4943508838514 0.480205860151443 2.34577782546328 0.0563000000000001
0.05632 8.18382405779947 9.08701829613923 14.3467127392616 0.484803880175743 2.31902723185224 0.05631
0.05633 8.08919276716177 9.11098567109547 14.2922304559341 0.485480246512162 2.33320868215762 0.0563200000000001
0.05634 8.08962698558232 9.02329019769002 14.3680683799739 0.48634821375965 2.33717969742414 0.0563300000000001
0.05635 8.14427398210712 8.99073743590186 14.4098720116134 0.479989790877757 2.33514975077535 0.05634
0.05636 8.20171859671332 8.92765938898673 14.3593834107489 0.488515718586 2.31926431717125 0.0563500000000001
0.05637 8.30122865896952 9.13296728514069 14.4137951925425 0.492069110315947 2.33689666088377 0.05636
0.05638 8.25514235654467 8.96009691770734 14.427821272487 0.488445886941048 2.3277491286547 0.05637
0.05639 8.24456867546659 8.88845240579443 14.3928579415052 0.472636754286795 2.33406552283782 0.0563800000000001
0.0564 7.9509308630249 8.90577430591136 14.4525819103374 0.479631745372207 2.34233432012175 0.05639
0.05641 8.01387126239532 8.72468204954377 14.684038368531 0.474406233242985 2.37137546874768 0.0564000000000001
0.05642 7.91557709047898 8.47058805540176 14.6794086197452 0.459438942738176 2.35137071603347 0.0564100000000001
0.05643 8.03451449965693 8.71596519612473 14.5911691827649 0.471512783702073 2.33503613461564 0.05642
0.05644 8.15115016232502 8.77203879741835 14.4936845434842 0.469901408472614 2.36001880433984 0.0564300000000001
0.05645 7.98270345944376 8.70722057945803 14.6217560502958 0.471556628244878 2.36034347633655 0.05644
0.05646 8.15958370104425 8.85886353675366 14.624207676498 0.477179570624599 2.36760058534101 0.0564500000000001
0.05647 8.1837359177787 8.91927001199646 14.4867392396075 0.487356192803532 2.32408894347034 0.0564600000000001
0.05648 8.08481962421779 8.88563000216577 14.4515263322127 0.474221134993339 2.34776225305805 0.05647
0.05649 8.12281738929905 8.73680652670785 14.4455546168392 0.478117577177725 2.33486205059113 0.0564800000000001
0.0565 8.3521858251003 8.92164496486735 14.5621033253057 0.485194702577754 2.37132822956949 0.0564900000000001
0.05651 8.27905322401302 8.93282963269163 14.5019577880972 0.477138474305268 2.36179754056829 0.0565
0.05652 8.25175552139612 8.94873079718741 14.4771853554301 0.486871459598486 2.33225197020535 0.0565100000000001
0.05653 8.19212461442179 8.98425701379966 14.5503627769175 0.487804124615424 2.3597811506442 0.05652
0.05654 8.22612433887156 9.12210213124558 14.412778140036 0.483234020613695 2.33578916630364 0.0565300000000001
0.05655 8.21782247048496 9.17812516227443 14.488359828333 0.493153334583854 2.34839694766094 0.0565400000000001
0.05656 8.52962567433562 9.03024008753742 14.5040098259349 0.48860156038086 2.3490279796098 0.05655
0.05657 8.22237631389982 9.12682288982373 14.4569859057385 0.478815042567086 2.34173919868521 0.0565600000000001
0.05658 8.25522210032944 8.95588920115755 14.5477809203654 0.481464490677121 2.35110554692783 0.0565700000000001
0.05659 8.13670574713112 8.91133783715422 14.6575064006252 0.47575404155479 2.37032933950683 0.05658
0.0566 8.40382743849686 9.18577341102893 14.4128507318232 0.489789911706415 2.35143633186366 0.0565900000000001
0.05661 8.13271117209879 9.20537026653917 14.4555030369095 0.488548888504437 2.3431915558529 0.0566
0.05662 8.15247752903743 8.91317517544459 14.376090048992 0.480698028122581 2.35124855519213 0.0566100000000001
0.05663 8.26248379808927 9.04330077174523 14.4825315758147 0.476152268592591 2.35507941334607 0.0566200000000001
0.05664 8.39765214964356 8.90605836453963 14.5922383003841 0.488479139639821 2.33802872290524 0.05663
0.05665 8.34255215748107 8.86729866087759 14.5898698845476 0.477729604540532 2.35669238847831 0.0566400000000001
0.05666 8.1893661653848 9.04618441787352 14.5463852822614 0.478572613031532 2.36269812338126 0.0566500000000001
0.05667 8.10148508641275 8.8590102200094 14.6453452358959 0.480385736514643 2.34973697258388 0.05666
0.05668 8.27183550081704 8.76779678429007 14.5774135211283 0.477019768393684 2.36015599293184 0.0566700000000001
0.05669 8.18341007016982 8.91855501435858 14.5717138638234 0.478212969471783 2.35395395210772 0.05668
0.0567 8.21964414395981 8.95196179063751 14.5816243054765 0.485340447251191 2.34282831775389 0.0566900000000001
0.05671 8.07540056606038 8.79551417471072 14.6861430102463 0.466493017469684 2.36814249609634 0.0567000000000001
0.05672 8.03821400644536 8.80101842370934 14.6361398262658 0.478926105681324 2.33253198150951 0.05671
0.05673 8.21164623334307 9.00265438261445 14.6261259334369 0.483448092890666 2.34002304508359 0.0567200000000001
0.05674 8.13661070488775 8.95749975023476 14.5713126919458 0.477194628152132 2.36786869773612 0.0567300000000001
0.05675 8.15229440391904 8.77949366206261 14.6439474125421 0.470058554791492 2.36733991024697 0.0567400000000001
0.05676 8.37569973595976 8.92745170786216 14.4961833897705 0.486230079878428 2.35694583033085 0.0567500000000001
0.05677 8.01397939046799 9.17637233425627 14.3917001960949 0.479782532591967 2.36921932516203 0.05676
0.05678 8.32879934331821 8.9397759151504 14.4563783352442 0.485468962139493 2.35920311764154 0.0567700000000001
0.05679 8.4001143781917 8.86910938509405 14.610360265341 0.489811726065111 2.37452478867187 0.0567800000000001
0.0568 8.35447675304792 9.04770143569923 14.5072298548501 0.489258629572387 2.34024364092018 0.05679
0.05681 8.40377411620812 9.04394783381771 14.445580945165 0.48871262987888 2.35226715650556 0.0568000000000001
0.05682 8.35455485318179 9.07031002861042 14.3804171572198 0.489697616421691 2.34678429438141 0.05681
0.05683 8.40292510507192 9.09036397142317 14.6426991892594 0.491471550828232 2.3620683581115 0.05682
0.05684 8.26073230271658 9.03171146956213 14.5611325631338 0.486669268181561 2.34193962153155 0.0568300000000001
0.05685 8.38153624347433 9.08094978727447 14.47443999683 0.497641955123344 2.32800752461685 0.05684
0.05686 8.36285969848508 9.02660135267976 14.4417768531294 0.488022405209407 2.36284677586332 0.0568500000000001
0.05687 8.17651210710982 9.10882094798722 14.5511471235324 0.481169508838787 2.36902005918118 0.0568600000000001
0.05688 8.00055466350564 8.91859023149009 14.7436727837314 0.469133049237985 2.37711202790821 0.05687
0.05689 7.99888713009499 9.04875289430562 14.6597946684605 0.481158139420808 2.36353835110348 0.0568800000000001
0.0569 8.14087807763933 9.1612143237807 14.5855324924994 0.480697099374449 2.38340363296175 0.05689
0.05691 8.12174880167315 9.011222000315 14.5557682248722 0.476142684308917 2.36250071789958 0.0569000000000001
0.05692 8.20291516346693 9.02951141001506 14.5952975416905 0.48261885460291 2.36311241281897 0.0569100000000001
0.05693 8.21328641412137 8.88490205835511 14.6625880961766 0.484906802590159 2.35200287155875 0.05692
0.05694 8.23250211573642 9.02336592299048 14.542183141682 0.479541106500065 2.35791360070214 0.0569300000000001
0.05695 8.44534999022713 9.09510457422564 14.5314359003187 0.494765788984138 2.35522028752576 0.0569400000000001
0.05696 8.32982934253042 8.86258881134004 14.4665007671868 0.482812079837883 2.35503197822258 0.05695
0.05697 8.25091274075904 9.06775260600351 14.6444808807753 0.480300448537913 2.37172393238701 0.0569600000000001
0.05698 8.38250691481976 8.99341646857255 14.6140414358445 0.489513936426189 2.36900042941313 0.05697
0.05699 8.18964670367818 8.95727899930388 14.5704200269522 0.480784681941881 2.34328533300267 0.0569800000000001
0.057 8.00034081410184 9.03701296030655 14.7186426656236 0.478221388991591 2.35948277831126 0.0569900000000001
0.05701 8.06689179318476 8.98541921346112 14.638440104557 0.479206187666774 2.36444422273388 0.057
0.05702 8.21717848126976 9.02867641530324 14.7301441041512 0.478868750965743 2.3922959684668 0.0570100000000001
0.05703 8.1935309660653 8.92221737170607 14.637986020635 0.472046263372043 2.36757529486381 0.0570200000000001
0.05704 8.38275774079133 8.97297260144993 14.5909151652826 0.486925706732969 2.36743703469319 0.05703
0.05705 8.41052117121463 8.90038211494671 14.6676990284732 0.488173024749296 2.37374524460286 0.0570400000000001
0.05706 8.49572847781883 8.83467358575843 14.7477049900279 0.482260193269655 2.38382702567541 0.05705
0.05707 8.47031553301146 9.10763627127477 14.5481623354212 0.488399245907168 2.37314054273574 0.0570600000000001
0.05708 8.3365340863194 9.27325491645075 14.5444644654054 0.49379703917627 2.36953791722719 0.0570700000000001
0.05709 8.39871356559832 8.97516192644084 14.5467295033132 0.48378389653616 2.37752478274695 0.05708
0.0571 8.47002040554557 8.88805518727593 14.6764189365985 0.493747311539704 2.36568721348847 0.0570900000000001
0.05711 8.48933180558481 9.21521817645662 14.6441451498121 0.503797447034812 2.35834812934456 0.0571000000000001
0.05712 8.2568990234969 9.17155969236957 14.55973335309 0.491211452877773 2.35373873445109 0.05711
0.05713 8.16358131632115 9.14998967271248 14.6061628465245 0.492313786662584 2.36646765171898 0.0571200000000001
0.05714 8.3250607431708 9.12674115193559 14.6347425341144 0.484758979482108 2.38362668287994 0.05713
0.05715 8.32385597228051 9.26689395362551 14.6519802107275 0.491154346645491 2.3813839312909 0.0571400000000001
0.05716 8.21022241426155 9.13415163384199 14.5347836357462 0.484367045373637 2.3569209857998 0.0571500000000001
0.05717 8.20234820221093 9.09665745381412 14.670850581289 0.486019185224833 2.3609027942515 0.05716
0.05718 8.26273067020436 9.04041944326729 14.6681914849191 0.48342111412124 2.37628909209701 0.0571700000000001
0.05719 8.00461982301449 8.94279060036584 14.7593121826427 0.475239150517311 2.38149833481901 0.0571800000000001
0.0572 8.13868317332054 9.06742471670692 14.6635752287424 0.482430022002129 2.37904001642765 0.0571900000000001
0.05721 8.26356373566041 9.09499133021146 14.6929656967672 0.491728733241775 2.37383873058098 0.0572000000000001
0.05722 8.24472184820272 9.09384583987098 14.6259592287597 0.485951106949243 2.36245708141194 0.05721
0.05723 8.37000929371662 9.12815196896022 14.6186129793625 0.489113630026124 2.3686437135202 0.0572200000000001
0.05724 8.5061518265274 9.02618845779834 14.5851238492565 0.493347417388226 2.35287400654279 0.0572300000000001
0.05725 8.4013465415477 9.10598413879207 14.5358449350489 0.495030886815871 2.3521072396633 0.05724
0.05726 8.21614470449138 9.12299302115983 14.6497096653209 0.488756062461348 2.38634416426482 0.0572500000000001
0.05727 8.39759556716194 9.0587010946944 14.6806502755981 0.490985028498713 2.39301639842016 0.05726
0.05728 8.30347547223309 9.15153992715299 14.7581126767589 0.498808474850252 2.38179421532165 0.05727
0.05729 8.22964252628006 8.8620002913933 14.6462355625234 0.475309180692603 2.38468293732118 0.0572800000000001
0.0573 8.43345825033738 9.04350806392111 14.6496286700379 0.48879937149549 2.3923952544229 0.05729
0.05731 8.36527051433547 9.27650073102921 14.7456414542046 0.496144596825797 2.36760263107541 0.0573000000000001
0.05732 8.3302671508157 9.10265898202657 14.5564291719951 0.485384654382051 2.38086024190033 0.0573100000000001
0.05733 8.35291820992794 9.18427664650318 14.5517278201641 0.490846488665402 2.38229555270608 0.05732
0.05734 8.47878960066558 9.14071092486378 14.7221199463522 0.497756779565434 2.37618729008191 0.0573300000000001
0.05735 8.19320487082688 9.03352092265816 14.6949190546326 0.478940433752443 2.3748574886644 0.05734
0.05736 8.17269834215102 9.00952200718446 14.675424913038 0.48379486736005 2.34633783263259 0.0573500000000001
0.05737 8.18295390154644 9.19979604896926 14.5892056873671 0.490549881160113 2.37718033871677 0.0573600000000001
0.05738 8.2281262478187 9.33917485340016 14.6694385186463 0.481071023932235 2.39857514499604 0.05737
0.05739 8.21479410677962 9.23136630095224 14.5884980440162 0.498650743095101 2.35661301433645 0.0573800000000001
0.0574 8.376100120285 9.2366687906374 14.5819253480937 0.489649502575338 2.36143437265045 0.0573900000000001
0.05741 8.48432002347241 9.26158753832357 14.6247823586165 0.501674567101611 2.3771354726301 0.0574
0.05742 8.65403382273898 9.28485097663209 14.5845904737074 0.497072874252075 2.40303733047042 0.0574100000000001
0.05743 8.52582259107488 9.22918898211911 14.644915498516 0.494879209352637 2.38862902094175 0.05742
0.05744 8.3137690132442 9.18421806255638 14.7204379243387 0.488733874972787 2.3941335672731 0.0574300000000001
0.05745 8.2599920520412 9.12672407490769 14.7633550492075 0.481600912410276 2.39771838038294 0.0574400000000001
0.05746 8.31574504848213 9.0675974440838 14.8160834662159 0.485904475446737 2.39067973739644 0.05745
0.05747 8.14017319504016 8.81630535889624 14.9032701509027 0.469945459890661 2.40601026877429 0.0574600000000001
0.05748 8.27012208924194 8.97656202165804 14.8647777846879 0.485634956467232 2.3954747837456 0.0574700000000001
0.05749 7.98175969083376 8.99735446008956 14.9469359099646 0.473472388338768 2.3909474320729 0.05748
0.0575 8.24791782241826 8.98985471353977 14.7946339928435 0.489295724619976 2.38025866885819 0.0574900000000001
0.05751 8.15625047443741 9.13790896822194 14.7751120951094 0.479590132731768 2.38468345347555 0.0575
0.05752 8.32528974289188 9.08753929927812 14.7559429366067 0.488062523749833 2.36713360470962 0.0575100000000001
0.05753 8.28836601589783 9.19524294115913 14.7085400229966 0.490105579018944 2.36825404218638 0.0575200000000001
0.05754 8.47366783458273 9.21415458591409 14.5663684636326 0.49869028273855 2.36398802185191 0.05753
0.05755 8.46765833101668 9.24865626262543 14.6808585919654 0.500582929372749 2.378087392207 0.0575400000000001
0.05756 8.65238404487714 9.52650810663981 14.4360909134308 0.514270732005602 2.35753375913987 0.05755
0.05757 8.51750303119861 9.31773565632178 14.5115719182031 0.505324225027834 2.38028606799239 0.05756
0.05758 8.44454014530359 9.19866568316826 14.588966142452 0.497237852163656 2.38124790353875 0.0575700000000001
0.05759 8.65995939285306 9.2881447173635 14.5655163622405 0.504423655527483 2.3814262843131 0.05758
0.0576 8.42872693131988 9.15765038114948 14.6108819227738 0.496959403925399 2.35807348407909 0.0575900000000001
0.05761 8.42953815453961 9.0670398985032 14.7229173926454 0.489916911086293 2.3980907707608 0.0576000000000001
0.05762 8.30075687133212 9.21396303100424 14.7858217780509 0.495000940297649 2.3825424365251 0.05761
0.05763 8.28567597207924 9.16011027162849 14.7211229902281 0.491548226424712 2.38175406389208 0.0576200000000001
0.05764 8.29330756234375 9.10415787382736 14.7872040385567 0.483720015832279 2.40698727399283 0.05763
0.05765 8.36709559448683 9.04674884611459 14.8373650818601 0.490300754167286 2.41199561470834 0.0576400000000001
0.05766 8.26498286640453 9.07669218058245 14.9581552268133 0.485171314667552 2.3997817099396 0.0576500000000001
0.05767 8.22622991287961 9.19327048342053 14.6300495535385 0.489250331335279 2.38043931729027 0.05766
0.05768 8.17077694596506 9.1640448030625 14.8114863218541 0.48826101605708 2.39253496133344 0.0576700000000001
0.05769 8.55532696211878 9.19037412889536 14.8125012103116 0.500132788849943 2.40722408954793 0.0576800000000001
0.0577 8.21872080660511 9.12097657466765 14.737389348096 0.483502513967339 2.38299705773644 0.05769
0.05771 8.22631084106913 8.91379832651845 14.8063245154321 0.48024191838322 2.38903944287496 0.0577000000000001
0.05772 8.42023839409617 9.23529642935205 14.7542457902719 0.498866964950826 2.38091571930976 0.05771
0.05773 8.28434768835633 9.17004406458172 14.7501026129759 0.487337257498312 2.40405134967213 0.0577200000000001
0.05774 8.26973223608063 9.24375693056537 14.7393269896785 0.498269516954255 2.39809478546971 0.0577300000000001
0.05775 8.42133398773167 9.14197095508802 14.8813210235876 0.489685820335417 2.40893577136504 0.05774
0.05776 8.52632708568719 9.3030160468841 14.6560525193522 0.496218876660021 2.38108500642143 0.0577500000000001
0.05777 8.60946311481805 9.40763300232845 14.664979224167 0.51585062387775 2.36412461602493 0.0577600000000001
0.05778 8.48501485785354 9.38534327729359 14.6459263627957 0.501353904392864 2.38126104339349 0.05777
0.05779 8.59904769816074 9.53579132538969 14.6253849224532 0.507927077549745 2.38996231035744 0.0577800000000001
0.0578 8.53725235198043 9.27482766797612 14.5882248970663 0.505699399063368 2.37693130574184 0.05779
0.05781 8.66479116859217 9.25658468134923 14.7181857232422 0.504093391402328 2.40119214690177 0.0578000000000001
0.05782 8.57644920139952 9.30891047599294 14.7978580665124 0.506035458373623 2.38249362937639 0.0578100000000001
0.05783 8.2724360343889 9.09711247161555 14.761882379787 0.487308241036899 2.38276342569696 0.05782
0.05784 8.41814407111117 9.14047266820681 14.7823217488437 0.497100975133537 2.38496474183497 0.0578300000000001
0.05785 8.48282662876733 9.22303190708053 14.6132824334157 0.495620053883703 2.37272889362687 0.0578400000000001
0.05786 8.55026925494818 9.23381505267383 14.7194454229438 0.490657406005447 2.40290974949077 0.05785
0.05787 8.35321208932614 8.98857867090314 14.8367600087585 0.486104210236645 2.39812264817012 0.0578600000000001
0.05788 8.4357807718329 8.96423717605184 14.8702428965398 0.490465857185414 2.41100860575425 0.05787
0.05789 8.31062855856336 9.01607531910166 15.0055375592742 0.48603559683349 2.42135271921183 0.0578800000000001
0.0579 8.33691038159536 8.98467057228437 14.9325353325966 0.479536138907473 2.41216814909724 0.0578900000000001
0.05791 8.32151706645452 9.14125917893054 14.9588976694844 0.487445655664127 2.41228399807513 0.0579
0.05792 8.1418257218945 9.24612020204704 14.958883843187 0.488178961610652 2.41607792531992 0.0579100000000001
0.05793 8.29430599291818 9.13382671950369 14.858890875966 0.492276333906242 2.39789760831781 0.05792
0.05794 8.40861519672437 9.10919954506781 14.8133027078021 0.491662678799716 2.41489971494907 0.0579300000000001
0.05795 8.38425085651324 9.06786915831657 14.7924110544421 0.491578730610707 2.40002532647549 0.0579400000000001
0.05796 8.51599315534725 9.18818050989648 14.8576525583764 0.495778807189843 2.41455232900563 0.05795
0.05797 8.6536634787346 9.35530518614584 14.7894168217615 0.508227528953041 2.39935665537277 0.0579600000000001
0.05798 8.62292514131767 9.35150014716818 14.6984214849003 0.508223286050074 2.39406226897861 0.0579700000000001
0.05799 8.73621023244132 9.37596602262385 14.5743456598856 0.502947048947158 2.40201804661999 0.05798
0.058 8.52331750422081 9.28058055067699 14.65871767854 0.499367051016776 2.38936072413212 0.0579900000000001
0.05801 8.64489861006405 9.39297203772586 14.6619479406493 0.50546107113479 2.37283254991745 0.058
0.05802 8.6452850156213 9.31866061382608 14.6666215307519 0.507306740433558 2.37878693366357 0.05801
0.05803 8.55567652949759 9.2732356662425 14.6758618953626 0.505053750359969 2.39329385652068 0.0580200000000001
0.05804 8.50904126981872 9.24617206205986 14.8873471905389 0.496495711043797 2.42361993407587 0.05803
0.05805 8.51242247983314 9.2163612428473 14.8366093881148 0.501926278147766 2.39899140955285 0.0580400000000001
0.05806 8.48916645573903 9.15201661354975 14.8632388844319 0.489881123929008 2.42631149240404 0.0580500000000001
0.05807 8.36393273526398 9.180238790461 14.8399317076625 0.486592385992595 2.40724204367539 0.05806
0.05808 8.52999067463844 9.30220364940342 14.7168242667705 0.50575034019871 2.37901476452034 0.0580700000000001
0.05809 8.30815259610143 9.22986552482282 14.8769194557694 0.489007168004973 2.41842497212023 0.05808
0.0581 8.36983989179111 9.2102911132853 14.8694270134948 0.492871423672359 2.39692680050654 0.0580900000000001
0.05811 8.22039168685878 9.21650771638738 14.8636002377219 0.495908342902506 2.40555004803397 0.0581000000000001
0.05812 8.41137568575753 9.06871328904772 14.7912088054696 0.492467290897423 2.39356496054066 0.05811
0.05813 8.52367652088129 9.1974007750388 14.8022535121513 0.495641122331153 2.4139584026859 0.0581200000000001
0.05814 8.42893521209337 9.36421091753544 14.8076268558709 0.501553953903895 2.40179614162972 0.0581300000000001
0.05815 8.55792210939657 9.2086083317566 14.7889466379482 0.487017437062808 2.40823817182635 0.05814
0.05816 8.65281382370447 9.42488259226153 14.7332372288965 0.50411170937015 2.40536538309318 0.0581500000000001
0.05817 8.59842041264659 9.20442367268519 14.8066226815313 0.49475787873196 2.40510843831343 0.05816
0.05818 8.52235125214748 9.21575666834667 14.9043097484646 0.499340718492361 2.42152344273003 0.0581700000000001
0.05819 8.42283144862052 9.06080884716911 14.8838452496956 0.493809184166627 2.39213736826984 0.0581800000000001
0.0582 8.55803386782077 9.50304485166855 14.7573078598871 0.502684344181378 2.40349773919425 0.05819
0.05821 8.79251551342832 9.51662885389391 14.6077950928107 0.514680238915721 2.4094268302613 0.0582000000000001
0.05822 8.71502472477511 9.35245024688722 14.7088987126288 0.511255905086053 2.40579822036987 0.0582100000000001
0.05823 8.5875560283044 9.17394623059744 14.8749923667021 0.499382116139398 2.40418832299298 0.0582200000000001
0.05824 8.34267191934956 9.3567804702527 14.9054461040131 0.493230480285197 2.41926330116313 0.0582300000000001
0.05825 8.30437197483942 9.15324582420791 14.8895049023743 0.491109806383954 2.40373713499396 0.05824
0.05826 8.29855319974256 9.06831856593269 14.9658527311358 0.489706416362757 2.41927189805582 0.0582500000000001
0.05827 8.26322702684901 9.23037083854328 14.9572660030213 0.492655555299624 2.41210313204034 0.0582600000000001
0.05828 8.29274989693277 9.29729321355366 14.810309373327 0.499896704212216 2.38031385136423 0.05827
0.05829 8.39895972859101 9.25068809986059 14.8859294080119 0.491359087748568 2.42001636680985 0.0582800000000001
0.0583 8.44382022656598 9.27655020205824 14.9306671498892 0.497201412068208 2.42939700089841 0.0582900000000001
0.05831 8.765936504987 9.46497580149292 14.8037888872773 0.505826931243182 2.42719088279205 0.0583
0.05832 8.76719590838885 9.75200540766349 14.7443665399892 0.519506779199945 2.42185315240681 0.0583100000000001
0.05833 8.7021605289969 9.65160897564912 14.6898432717765 0.519599816800096 2.3998105818544 0.05832
0.05834 8.61390686250408 9.4343666371696 14.7531682486144 0.49918613853733 2.40778322163508 0.0583300000000001
0.05835 8.67656780656698 9.47596354691754 14.6635520604246 0.510547704694875 2.39097472435891 0.0583400000000001
0.05836 8.76943513165111 9.47618254746773 14.7000457835251 0.513242457152195 2.39729585721385 0.05835
0.05837 8.45769435864276 9.41414144261106 14.7531815093047 0.495362155888396 2.4138567319218 0.0583600000000001
0.05838 8.61903528513334 9.26086448298036 14.8645099013118 0.508474630079204 2.41071406571186 0.05837
0.05839 8.53289684393019 9.33378538437085 14.8844118526332 0.498483807748384 2.42064157208251 0.0583800000000001
0.0584 8.65244498989765 9.31530001315019 14.780411605547 0.508790033092546 2.4000778351439 0.0583900000000001
0.05841 8.41125986546155 9.16890178570602 15.0031830490284 0.491617351740918 2.43096931539769 0.0584
0.05842 8.25634294464599 9.13609666786677 15.0328890665961 0.477670242522925 2.43907787667947 0.0584100000000001
0.05843 8.31142406958075 9.24164577850331 14.9132002863858 0.492746112648174 2.42882481515046 0.0584200000000001
0.05844 8.52736079955433 9.13787911404581 14.8983142344947 0.496257990916446 2.42495691553475 0.05843
0.05845 8.56790046944401 9.4236317657493 15.04604436557 0.506135667542457 2.42590769705755 0.0584400000000001
0.05846 8.60244539600859 9.32065781535009 14.9515783303937 0.504793380658781 2.41827796006542 0.05845
0.05847 8.38693639511538 9.27450932619016 14.908452123651 0.497348341283077 2.42793866915834 0.0584600000000001
0.05848 8.3782912893749 9.16267996440919 15.0073632333106 0.489090908189883 2.42003832179798 0.0584700000000001
0.05849 8.41875171419532 9.20653562091154 15.0460987755502 0.496189932284762 2.42445218325986 0.05848
0.0585 8.31818413661365 9.22660391469534 15.0346590096628 0.495601327730489 2.41579099669882 0.0584900000000001
0.05851 8.53105685070664 9.13067934258795 15.0406002809997 0.501534469238029 2.41460579271461 0.0585000000000001
0.05852 8.65445312819156 9.33218855541063 14.8358412597416 0.510179493037953 2.41287770774241 0.05851
0.05853 8.41735073998354 9.52601012718426 14.7936118336934 0.503008088716434 2.41913304291799 0.0585200000000001
0.05854 8.46832312422879 9.46257615592495 14.8977947376124 0.500125007203179 2.43151797570945 0.05853
0.05855 8.61841675956469 9.38883302924025 14.9584330694487 0.505804410280784 2.42282567591702 0.0585400000000001
0.05856 8.48573268862322 9.41209001419872 14.9009560469517 0.505755600484041 2.40905761101935 0.0585500000000001
0.05857 8.54635308077915 9.47805378180972 14.7685821669661 0.502952909945494 2.4076630325015 0.05856
0.05858 8.67431434366749 9.62797602231591 14.8620783403197 0.511672804388878 2.42542100555474 0.0585700000000001
0.05859 8.75026147808839 9.74795728785404 14.7325345981784 0.518600983911881 2.40082177935017 0.0585800000000001
0.0586 8.83626540301418 9.54436073293559 14.7683551467018 0.516104776204514 2.40152770740026 0.05859
0.05861 8.81422519779197 9.49216153317664 14.8504275972216 0.512490560128226 2.41680595044573 0.0586000000000001
0.05862 8.6781565635101 9.41314466468275 14.8512243439704 0.51259608651705 2.38982727461146 0.05861
0.05863 8.83903191893108 9.45929045663108 14.7916863670804 0.514958702039923 2.40474447980045 0.0586200000000001
0.05864 8.59941712378035 9.43005672049089 14.8335182869022 0.502642755669997 2.41828308434014 0.0586300000000001
0.05865 8.66379653573783 9.28076129656046 14.9686689096454 0.506428422472069 2.42440615792872 0.05864
0.05866 8.49515684777081 9.20758690268292 14.9497269616222 0.491362790282204 2.44079578328778 0.0586500000000001
0.05867 8.46433119689473 9.06212014614375 15.2471537147261 0.49405840219998 2.4508343541029 0.0586600000000001
0.05868 8.3199107948824 9.21396940260781 15.1869923108218 0.494236410495593 2.43084685651629 0.0586700000000001
0.05869 8.4021606832516 9.15721536435946 15.0080068577793 0.494025560004739 2.40699368580703 0.0586800000000001
0.0587 8.4120564844564 9.2883122017901 14.9146605442731 0.488669279441452 2.43636023027011 0.05869
0.05871 8.45047434634053 9.31424085715879 15.1183657097713 0.497439852854014 2.43557249466105 0.0587000000000001
0.05872 8.62187085364124 9.11362126074378 14.987114806554 0.489756046936767 2.44694414317351 0.0587100000000001
0.05873 8.57665201021998 9.16956266703418 15.1540092380578 0.493627596936276 2.45668929811113 0.05872
0.05874 8.86751007948285 9.40599863925573 14.8747325849295 0.515177049117908 2.42316700056169 0.0587300000000001
0.05875 8.93976346783548 9.60433446828779 14.766423449573 0.520298124531771 2.42340725134525 0.05874
0.05876 8.84408178109734 9.60167569318519 14.8952323739833 0.515763477856763 2.43479556438956 0.05875
0.05877 8.60199659703228 9.4252783848544 14.8509361614416 0.507693938218569 2.41674357354995 0.0587600000000001
0.05878 8.62306011256317 9.52830461419226 14.9062869003372 0.50959340492646 2.43407852160945 0.05877
0.05879 8.62235643974342 9.40352058734645 14.9593894495739 0.503889976414065 2.43147269347467 0.0587800000000001
0.0588 8.52551016132279 9.22361877973169 15.0044416067703 0.506329616246697 2.40734306725238 0.0587900000000001
0.05881 8.8418616744257 9.42185634090269 14.8030502841253 0.511274439407901 2.42404117374562 0.0588
0.05882 8.4949642310116 9.35704571504163 15.0255830844526 0.498050007438187 2.4303448777791 0.0588100000000001
0.05883 8.61626726280534 9.41438914705759 14.8993534210054 0.509195855759729 2.41736553917029 0.05882
0.05884 8.50183127344945 9.42327493106995 15.0150902256457 0.502380645672828 2.44936627322977 0.0588300000000001
0.05885 8.47633657261596 9.24957902990152 14.9947361265257 0.497149858169557 2.41888120569472 0.0588400000000001
0.05886 8.35908793103399 9.4250155959915 15.0042423869032 0.501054211582039 2.42272031567077 0.05885
0.05887 8.42849112110032 9.3849146426243 14.9990739497065 0.498875211737724 2.43027152285798 0.0588600000000001
0.05888 8.78803870401744 9.67966042725359 14.8774212034033 0.517592412204608 2.44090187045156 0.0588700000000001
0.05889 8.72382193292276 9.53413970432364 14.8489471192965 0.514479988292667 2.42221157347632 0.05888
0.0589 8.63511218061712 9.50539676451667 14.9217868007475 0.512936702823064 2.42239486585882 0.0588900000000001
0.05891 8.68718935783432 9.63833860361265 14.9254088509308 0.512261685443611 2.43400459196881 0.0589
0.05892 8.79521852682269 9.51054191321014 14.8796939413457 0.51429280925728 2.42966808048127 0.0589100000000001
0.05893 8.90700408167743 9.62110924403467 14.7557982535336 0.525029852460706 2.42828145798462 0.0589200000000001
0.05894 8.87776753996394 9.43427205695084 14.9343490336152 0.509852918507951 2.43427607349096 0.05893
0.05895 8.75042722347824 9.41219659451744 15.0123666386757 0.513091011264277 2.4350360873278 0.0589400000000001
0.05896 8.59101653819383 9.26796065902906 14.9858908911144 0.505100105121313 2.42097489358843 0.0589500000000001
0.05897 8.70611344864391 9.45261772880856 14.9216188456939 0.50980575178989 2.44235602134205 0.05896
0.05898 8.51903587164797 9.51826291833727 15.0367039104703 0.508462398934897 2.44817823089267 0.0589700000000001
0.05899 8.62896507683969 9.42721237789971 15.0281863207615 0.507627011357731 2.43264988500094 0.05898
0.059 8.49831012784107 9.37836572499458 15.0896355176316 0.502931708047904 2.43480244237456 0.0589900000000001
0.05901 8.48993900676852 9.3614599653817 15.0134462474585 0.502098332892552 2.43859623189943 0.0590000000000001
0.05902 8.6388406243658 9.2310105734845 15.0621344204448 0.49832166059494 2.45146366440491 0.05901
0.05903 8.84059867421254 9.5365850263436 14.9938169739445 0.51972345057844 2.43714138923325 0.0590200000000001
0.05904 8.6461118315955 9.2256811609874 15.0591129480424 0.497659572635454 2.42925501098797 0.0590300000000001
0.05905 8.55054588072855 9.16890804222248 15.0442889903882 0.48760093527544 2.45776142775598 0.05904
0.05906 8.51288379732571 9.23049707502819 15.0405237110986 0.497143165391347 2.44939048955579 0.0590500000000001
0.05907 8.68366510621023 9.47941637599928 15.1179464968514 0.5104906252878 2.46147294962151 0.05906
0.05908 8.55555831982189 9.52520358499406 15.1356809320582 0.507923645498225 2.46681330574152 0.0590700000000001
0.05909 8.66738445233434 9.35754241144189 15.083042137125 0.508736558476619 2.44682116234942 0.0590800000000001
0.0591 8.61583018711769 9.48617114672478 15.1075750447915 0.510080958464525 2.44180961485568 0.05909
0.05911 8.71006302451071 9.57762726699392 15.0282512300607 0.511462536236935 2.44999662709405 0.0591000000000001
0.05912 8.88086077098247 9.58868865413036 14.8799068105247 0.515756852587833 2.45033195292089 0.0591100000000001
0.05913 9.04670118535604 9.58567498484031 14.9249219639972 0.52359870180568 2.43250566031509 0.0591200000000001
0.05914 8.86255907791099 9.73756127995544 14.8449176061672 0.526269469256414 2.42529099281762 0.0591300000000001
0.05915 8.65817505720061 9.48699269366775 15.0164236532002 0.508111382120825 2.43794895441721 0.05914
0.05916 8.66125326290051 9.54695120412687 14.9869001520802 0.511279302547635 2.41366714262922 0.0591500000000001
0.05917 8.63310428123429 9.5572470554318 14.9869016048178 0.508529283801301 2.438910618293 0.0591600000000001
0.05918 8.63121151543232 9.43574316448564 15.0664715645924 0.510971601971057 2.45783552917894 0.05917
0.05919 8.61397367718403 9.57930174189781 15.0848807843117 0.508676967880609 2.45456474581151 0.0591800000000001
0.0592 8.49914714138682 9.42090161073435 15.077791922626 0.510662507245178 2.45556227048428 0.05919
0.05921 8.83549302208389 9.5356433211108 14.9024948762055 0.515305193332299 2.44839556980808 0.0592
0.05922 8.57385746846044 9.54161962866707 15.2597455529373 0.504978162010807 2.47118344089255 0.0592100000000001
0.05923 8.42477785136168 9.22086561363547 15.2392506470091 0.493002996081265 2.45067790923755 0.05922
0.05924 8.55197568575637 9.2980835103122 15.1372059575861 0.502871439059976 2.45007238319772 0.0592300000000001
0.05925 8.49485305644039 9.45395061951808 15.2392981528409 0.504091844632533 2.44980433592822 0.0592400000000001
0.05926 8.56879484379515 9.28653133429821 15.161875941069 0.50612689089244 2.43148211022327 0.05925
0.05927 8.52604020752637 9.47765865839055 15.1666417374853 0.507116161017799 2.45236393567741 0.0592600000000001
0.05928 8.45673406761239 9.54445481844643 15.1386826027773 0.508029738030476 2.43092019995058 0.05927
0.05929 8.53825695455796 9.40390167693108 15.0252244579386 0.497494563224565 2.4224596911694 0.0592800000000001
0.0593 8.85057402035286 9.68687396633744 15.0438051496541 0.519280360363249 2.43759531858989 0.0592900000000001
0.05931 9.08776123913656 9.68534957583826 14.8892302056454 0.534504100315583 2.41148863891418 0.0593
0.05932 9.04938665386513 9.62786018257024 14.8836835765484 0.520775427685341 2.45690255165978 0.0593100000000001
0.05933 8.84140469632186 9.66981918772472 14.8445311470042 0.516448457870112 2.42535866274227 0.0593200000000001
0.05934 9.10446024691012 9.70141216479568 14.882745632154 0.531558219349512 2.41404888166155 0.05933
0.05935 8.97775941972202 9.77106962468528 14.8487495568726 0.528461667560354 2.4412657132666 0.0593400000000001
0.05936 8.78326714421231 9.72115357457066 14.9067808897406 0.515879922759575 2.45894199470723 0.05935
0.05937 8.73233101591955 9.54470603210876 14.9126469046732 0.511890942699411 2.4570614651385 0.0593600000000001
0.05938 8.80149129326454 9.39370329328648 15.0910598482435 0.50928552236641 2.46267492081869 0.0593700000000001
0.05939 8.54793219133144 9.22297522127139 15.2292017069673 0.493376983082006 2.46432882826258 0.05938
0.0594 8.48781709332394 9.37027510494003 15.2075597100998 0.506689082299117 2.43605446333335 0.0593900000000001
0.05941 8.69690913875589 9.52337552713069 15.1295366135798 0.513350463240413 2.44461798226424 0.0594
0.05942 8.64258307175941 9.43457973256863 15.1503186114605 0.510423293764942 2.45521164561511 0.05941
0.05943 8.36990441797647 9.49627612268343 15.339021869181 0.50574305296728 2.47324474429425 0.0594200000000001
0.05944 8.5440126512702 9.36369272544976 15.2534462398814 0.499150238420153 2.468717273296 0.05943
0.05945 8.49084409473893 9.15409321223969 15.2656478996733 0.50128377072929 2.43691052072543 0.0594400000000001
0.05946 8.49787146442187 9.39615029255774 15.2692563682532 0.495899129686047 2.4680763356069 0.0594500000000001
0.05947 8.47671801943726 9.30007833289562 15.1510514746098 0.497176521538231 2.45269694694222 0.05946
0.05948 8.6369158171165 9.45023374110174 15.2190935118497 0.51338769415157 2.44786497689082 0.0594700000000001
0.05949 8.82029570961967 9.54833943641185 15.1569599456528 0.521672615360229 2.43626752730278 0.05948
0.0595 8.9415037768583 9.6030015429666 14.9008935720071 0.523273260412624 2.42634870476191 0.05949
0.05951 8.81504376080092 9.58641687313002 14.968628709832 0.510076848591799 2.44201419659546 0.0595000000000001
0.05952 9.10691334499441 9.91816591250157 14.9331539329996 0.536622783714225 2.44115739175333 0.05951
0.05953 8.98910969410396 9.93225194007582 14.916013377201 0.532681474676205 2.44823199273108 0.0595200000000001
0.05954 8.85666690136692 9.79345147386745 15.0564794246404 0.519231203874732 2.44598994107081 0.0595300000000001
0.05955 8.90172907748156 9.73586339574869 14.9540172113221 0.527751193108231 2.43886883838891 0.05954
0.05956 8.74821865084875 9.70802947809676 14.944772538224 0.517285625176664 2.45789734180106 0.0595500000000001
0.05957 8.95002538451596 9.74445943392377 15.0150218185385 0.5336495626834 2.43404421680664 0.05956
0.05958 8.91292318900951 9.66645840509597 15.0351009750399 0.515406926928088 2.44761728166371 0.0595700000000001
0.05959 8.68914229870925 9.50745735715529 15.0462946226322 0.511207013557248 2.44425181707959 0.0595800000000001
0.0596 8.75807906945568 9.50662023186715 15.1281617409801 0.509655988148565 2.46788072693035 0.05959
0.05961 8.69005365540413 9.5693379515229 15.1557069388337 0.515007270951845 2.45804946128619 0.0596000000000001
0.05962 8.47773265867721 9.36842768334055 15.2328015115842 0.496405338190682 2.48817456829478 0.0596100000000001
0.05963 8.5446002269392 9.29299882346501 15.3312688091445 0.496677179000324 2.47460397151482 0.05962
0.05964 8.66751459382173 9.35792548269071 15.2558630006497 0.506776348239887 2.46714597734656 0.0596300000000001
0.05965 8.65825645077507 9.52811989780858 15.1436608860537 0.504508328231118 2.47278857441186 0.05964
0.05966 8.47128139870897 9.41847836477893 15.3306951237263 0.50534372686739 2.4681665194722 0.0596500000000001
0.05967 8.57896576918525 9.29341944415154 15.2719067365731 0.505114066470523 2.47019365824468 0.0596600000000001
0.05968 8.53192429069298 9.26953019364585 15.3513083431061 0.494749255041583 2.46127107027467 0.05967
0.05969 8.50275641923605 9.47428442975884 15.2798456373019 0.502127442951864 2.4760619065283 0.0596800000000001
0.0597 8.65056979116074 9.540001780558 15.2761724443149 0.507199452119859 2.48871441166714 0.0596900000000001
0.05971 8.74766237156674 9.71212226778235 15.1139389716309 0.524690151744742 2.45932437319484 0.0597
0.05972 8.88228018512329 9.61955778263837 15.0825862497286 0.516699867900454 2.47003457405904 0.0597100000000001
0.05973 8.83240639341537 9.67779937640758 15.1112682460201 0.518422570249925 2.4475327705261 0.05972
0.05974 9.10669582440113 9.89132105488179 14.911781347766 0.531530705318515 2.45686788586566 0.0597300000000001
0.05975 9.05053036932703 9.95458002553017 14.9456181256243 0.530022757054721 2.46684967232198 0.0597400000000001
0.05976 9.10487820357781 9.7257955193344 14.9282346327623 0.528641688614188 2.44263269358265 0.05975
0.05977 9.11696983962408 9.75199893111115 15.0863561798547 0.532544524406625 2.45861779737075 0.0597600000000001
0.05978 9.01742919202503 9.8337648551561 15.0253175165071 0.526190197631166 2.47172869958993 0.0597700000000001
0.05979 8.88192591256802 9.71434457338876 15.0836724694235 0.520115163903469 2.46667709740985 0.05978
0.0598 8.85580194095607 9.71070071100165 15.0343486017663 0.519426577373454 2.43848448853261 0.0597900000000001
0.05981 8.72168273679135 9.69843084306393 15.1255022369815 0.518029057842568 2.45380109982324 0.0598
0.05982 8.650520661281 9.59522893455057 15.2070636108235 0.508869805757659 2.47018231776873 0.0598100000000001
0.05983 8.44089196576993 9.48436753571709 15.2459212986677 0.492415771662794 2.48981523413258 0.0598200000000001
0.05984 8.53836337901529 9.38823846984014 15.3650657279803 0.495199151613519 2.48533326684468 0.05983
0.05985 8.72704654144909 9.4399412104853 15.2718719388745 0.514561520699717 2.4670240400205 0.0598400000000001
0.05986 8.54697382209623 9.57280982404857 15.3264772020175 0.510672932351065 2.4687969238952 0.05985
0.05987 8.58992852603936 9.52180147810798 15.2195647347906 0.508971032037334 2.48165810442469 0.0598600000000001
0.05988 8.7994020330038 9.66891767204568 15.1781290718511 0.519614877800946 2.47687128288171 0.0598700000000001
0.05989 8.91818456389533 9.55039905289191 15.1536072234963 0.524685050916685 2.45195774243557 0.05988
0.0599 8.83928007459167 9.57286072649443 15.1159398098701 0.521007172442977 2.46382196478597 0.0598900000000001
0.05991 8.91717967101387 9.6928629419225 15.0728676261712 0.526141529129386 2.49206268637852 0.0599000000000001
0.05992 8.80958041306784 9.70133983058459 15.0820727941024 0.523586945093072 2.46519656705531 0.05991
0.05993 9.02552492680974 9.61256535447839 15.046417240569 0.520930891438506 2.45960018126668 0.0599200000000001
0.05994 8.9050126469386 9.68930645766117 15.1463479363163 0.521463842559027 2.4668915448828 0.05993
0.05995 9.06152419910644 9.93135849379722 14.9804360955521 0.534147048015177 2.44052253985482 0.0599400000000001
0.05996 8.86259092325761 9.89284044564482 15.0918444894849 0.523092147015855 2.4688577864012 0.0599500000000001
0.05997 8.77516952987033 9.69082995099344 15.2228482409331 0.514954036176677 2.48421220296097 0.05996
0.05998 8.86398756263176 9.566432592896 15.2546151669335 0.518064552981428 2.47226654585459 0.0599700000000001
0.05999 8.68700323103377 9.47700987895609 15.308083810464 0.506312605126176 2.48046581866495 0.0599800000000001
0.06 8.65485030498624 9.43247545946416 15.4303995485602 0.510165315520678 2.48064068268379 0.05999
0.06001 8.32580664277158 9.43374867121807 15.4789561550323 0.489613193946465 2.51081252482265 0.0600000000000001
0.06002 8.5501152696673 9.33604589604826 15.4270089351334 0.502652319331062 2.48884957067371 0.06001
0.06003 8.84935866550112 9.55479800704353 15.2520388128982 0.522061026758016 2.47010237561163 0.0600200000000001
0.06004 8.86195072607841 9.71478506419723 15.0810837085484 0.515431398667877 2.48028602536882 0.0600300000000001
0.06005 8.89839702773761 9.7471701784336 15.1382181224606 0.527192757232104 2.47012950799834 0.06004
0.06006 8.85718155379663 9.77880278244217 15.2036001142205 0.527569885708013 2.47324767863355 0.0600500000000001
0.06007 8.90487499741691 9.6381223152909 15.0723248131272 0.524144747029168 2.45694339459489 0.0600600000000001
0.06008 9.12354667049108 9.91651629146194 15.1315849125991 0.539615730270699 2.46287218150377 0.06007
0.06009 9.0157364732453 9.74721550056086 15.1798863660393 0.529542657391174 2.47720146384416 0.0600800000000001
0.0601 8.82725830779645 9.70412091780398 15.0051288475949 0.51922222848649 2.46841845297199 0.06009
0.06011 9.0576193105188 9.95677568235049 15.0083741928658 0.531251349548808 2.48563080750603 0.0601000000000001
0.06012 9.23475396702602 10.0400031880449 15.0780675877786 0.547246332481471 2.45220419744548 0.0601100000000001
0.06013 8.88608305456422 9.59914925022031 15.1719134556055 0.513573595856918 2.47281249574826 0.06012
0.06014 8.80867144348302 9.47851831771405 15.3424009359525 0.513976400752849 2.48557247399375 0.0601300000000001
0.06015 8.80369558642491 9.80542986771154 15.2217540453344 0.516721310858875 2.48811557128904 0.0601400000000001
0.06016 8.89063835322326 9.58707262321922 15.2977453489259 0.515764487791305 2.49172325638128 0.0601500000000001
0.06017 8.70867519998715 9.58028268156512 15.3033563645181 0.517335999050572 2.47870465883187 0.0601600000000001
0.06018 8.66483774782596 9.68910364579516 15.3149342793546 0.517423806375334 2.48311246383721 0.06017
0.06019 8.69746247036965 9.53980896156916 15.4165162686085 0.505604119713757 2.51544806394424 0.0601800000000001
0.0602 8.62858054338823 9.50924199415752 15.3629082872442 0.508366549009579 2.48598647514802 0.0601900000000001
0.06021 8.68824001567123 9.50219229432687 15.3271079504271 0.515072827319678 2.46589720605421 0.0602
0.06022 8.64799029695989 9.60374176116587 15.3140229474106 0.509069776338251 2.48834435635508 0.0602100000000001
0.06023 8.73655451138831 9.5894940152618 15.3551183934748 0.516116222489195 2.4912756548007 0.0602200000000001
0.06024 8.91536926041545 9.68458774288801 15.2599512585436 0.520505517583569 2.50537602027307 0.06023
0.06025 8.90158601117007 9.57696568324265 15.3635969764227 0.51251190492887 2.51146199255782 0.0602400000000001
0.06026 9.04288253937213 9.46161350915263 15.3253372318557 0.525261161624744 2.46107629874418 0.06025
0.06027 8.90767044783273 9.53388870538229 15.2559399635806 0.517943939478201 2.4856460027312 0.0602600000000001
0.06028 8.95587048863126 9.63315068805393 15.2153593472915 0.525255930419967 2.4882586285048 0.0602700000000001
0.06029 9.0008128500188 9.77148745006041 15.222577767586 0.525975605216422 2.50345390737369 0.06028
0.0603 9.09673078369928 9.80395874093768 15.1373301117488 0.529060657121776 2.46942056248552 0.0602900000000001
0.06031 8.97680604604636 9.72952081149123 15.1244390815805 0.525553978368042 2.4639735175528 0.0603
0.06032 9.01587000246858 9.78059753104914 15.2467054837936 0.534327278629487 2.45851584048646 0.0603100000000001
0.06033 8.8787355871433 9.88062914992036 15.1573917305903 0.523826033526038 2.47757779157597 0.0603200000000001
0.06034 9.10707150229837 9.84896628477644 15.0051449288038 0.533578252614601 2.46397147111527 0.06033
0.06035 9.12003111592165 9.93000939750717 15.2148664412781 0.538451819546664 2.49443697665341 0.0603400000000001
0.06036 8.92938500208588 9.70667996519079 15.2969517908644 0.524078687703236 2.48933336441138 0.0603500000000001
0.06037 8.92127719321587 9.69992344437658 15.2715389422855 0.525891967360788 2.46997019443537 0.06036
0.06038 8.84442932081745 9.65136442768912 15.4251853796258 0.522539560932515 2.47464003686633 0.0603700000000001
0.06039 9.04069372775352 9.64738653103598 15.3177498946856 0.531789174104656 2.46903651633986 0.06038
0.0604 8.75641050041649 9.59286226748067 15.3546785756253 0.510972781320392 2.50067008933063 0.0603900000000001
0.06041 8.76757435771711 9.57042802370155 15.3321441141729 0.509600299738783 2.50614849799235 0.0604000000000001
0.06042 8.69046774622058 9.63629237463534 15.3470506845654 0.515631747083276 2.50915781195981 0.06041
0.06043 8.74943622297502 9.47669756844626 15.3923977305278 0.510679986319201 2.51435977098768 0.0604200000000001
0.06044 8.88066488053544 9.52069460475441 15.3483536112066 0.508375200092559 2.51681129527377 0.0604300000000001
0.06045 8.89017663043821 9.76685833674337 15.2849585923878 0.529110685618352 2.48537377931022 0.0604400000000001
0.06046 8.8670779254412 9.75662525571792 15.2826763482821 0.523722938047634 2.50006640661825 0.0604500000000001
0.06047 8.61029905503794 9.84527049871614 15.3461317990222 0.514274383858206 2.50211260210869 0.06046
0.06048 8.88143059615384 9.88720275150026 15.2589555320072 0.528398706049092 2.50883163296022 0.0604700000000001
0.06049 8.9886229649719 9.76180336606431 15.1858979659171 0.519920964646755 2.50136799045989 0.0604800000000001
0.0605 9.00194393949549 9.73783279158584 15.1560990877388 0.520612145837256 2.48414093231391 0.06049
0.06051 9.20810023464121 9.68844201622296 15.2261630035041 0.54095283215617 2.48592435159336 0.0605000000000001
0.06052 9.15334986074346 9.92215756060859 15.2836828748585 0.538193176079324 2.49945304488378 0.0605100000000001
0.06053 9.08914877973011 9.68912816466305 15.1948787005274 0.529226568692597 2.48409492220051 0.06052
0.06054 9.13238857175385 9.78631419376087 15.2327440276724 0.529870374677915 2.48663489392814 0.0605300000000001
0.06055 8.98702494661113 9.82896767132192 15.255331975089 0.529351248768697 2.49445742601988 0.06054
0.06056 8.92542259150419 9.76513622079774 15.337386702079 0.527613630603715 2.50149402219826 0.0605500000000001
0.06057 8.86497746689105 9.79892172538455 15.3231568722444 0.518193525022409 2.51304575797274 0.0605600000000001
0.06058 8.73445545809695 9.82022979735748 15.5149590804153 0.516544662186518 2.53416682243573 0.06057
0.06059 8.72840090424874 9.80052817071762 15.3985987590706 0.521250244828563 2.50222823438579 0.0605800000000001
0.0606 8.78478007091882 9.5951513165472 15.5016865164161 0.521961359199456 2.50839456052172 0.0605900000000001
0.06061 8.86750668295081 9.6044731742262 15.3640872798587 0.510037760462724 2.50948220818587 0.0606000000000001
0.06062 8.79141426072638 9.60718864724955 15.3238837238793 0.52396698213797 2.47228313491577 0.0606100000000001
0.06063 8.85619653919434 9.87955435496753 15.2444027652954 0.520555246714738 2.50956802512431 0.06062
0.06064 8.80894053013464 9.78472427609812 15.318842295855 0.516694493457369 2.48822348205964 0.0606300000000001
0.06065 8.98479997791103 9.92863289912311 15.2849028804579 0.53391355350315 2.47707496622875 0.0606400000000001
0.06066 8.99903895808016 9.92460159099778 15.2168186765382 0.535922234352893 2.48748213178747 0.06065
0.06067 9.0595242738278 9.94344482343419 15.2912361826806 0.526549369254365 2.50998345168698 0.0606600000000001
0.06068 9.12699069845061 10.0250271231558 15.1991905205268 0.542509305448706 2.49143665209482 0.0606700000000001
0.06069 9.15870446904541 10.03796902887 15.1830923416083 0.53452607628339 2.50581415818296 0.06068
0.0607 8.91935608966677 9.90646279686303 15.3054020620809 0.523637413254867 2.5075923188147 0.0606900000000001
0.06071 9.04156244421685 9.90384215679578 15.2104852555925 0.531925661518068 2.49473899045795 0.0607
0.06072 8.89994215164974 9.81868508379494 15.2581827141856 0.522856252127498 2.51752531123896 0.0607100000000001
0.06073 8.90160362174716 9.99875346081823 15.4481386731869 0.52335827115343 2.52626037364845 0.0607200000000001
0.06074 8.83553101101556 9.64225872437447 15.4870468331055 0.520944045400797 2.50623496662142 0.06073
0.06075 8.49109308736524 9.5834668880337 15.5884540232046 0.502257138445641 2.51713289422037 0.0607400000000001
0.06076 8.60049895645342 9.73091749636564 15.6636432958772 0.513929383748063 2.53087916762604 0.06075
0.06077 8.81367066344291 9.44008706712921 15.5880497555721 0.515045838204744 2.50546606779265 0.0607600000000001
0.06078 8.84892553501302 9.77253841084568 15.4317194972908 0.526595947786476 2.50245225789557 0.0607700000000001
0.06079 9.06843592061825 9.78634213885036 15.4369785141216 0.523991600995916 2.51795498997183 0.06078
0.0608 8.84979532777271 9.56303659836113 15.5219107622302 0.518364068572713 2.49445495571455 0.0607900000000001
0.06081 8.91925655003232 9.73435387848126 15.4110592519669 0.52313511076855 2.50646565423961 0.0608000000000001
0.06082 9.10074778299379 9.87627273378204 15.2859158317122 0.53134386191465 2.51000442453897 0.06081
0.06083 9.17813303357741 10.1244798489293 15.2737245451247 0.541007689642025 2.5180008261198 0.0608200000000001
0.06084 9.13729200565025 9.92493641045807 15.3614099219658 0.537728723068382 2.51681361545809 0.06083
0.06085 9.25148218148595 10.09098287505 15.3000935748909 0.537830816664734 2.50231002861196 0.0608400000000001
0.06086 9.03128795908771 10.0112485714203 15.1993410042807 0.537392223560942 2.48132678681535 0.0608500000000001
0.06087 9.2206764658433 9.98094943823249 15.192881841239 0.544645570643759 2.48822588777071 0.06086
0.06088 9.09168044485401 9.98939917554357 15.415413445343 0.534665623109127 2.5134819873744 0.0608700000000001
0.06089 8.84860039925192 9.8053858618874 15.444737331304 0.519794272178653 2.51805580275919 0.0608800000000001
0.0609 8.99632964125697 9.86823054915731 15.4112439369993 0.526202123513528 2.52872953514403 0.06089
0.06091 9.00188727178801 9.89538157531624 15.4192383647673 0.534601495030371 2.51378735894648 0.0609000000000001
0.06092 8.94436339777305 9.85148020018395 15.482677296142 0.521771501443851 2.52352210302786 0.06091
0.06093 8.70818547778709 9.78517754015136 15.5913862898247 0.526071367814168 2.50147437914017 0.0609200000000001
0.06094 8.86306759829645 9.92306665556477 15.4420623853383 0.524831732091064 2.53669077132244 0.0609300000000001
0.06095 9.06491271287588 9.9013323614329 15.3665320814585 0.532916522513623 2.51123116784618 0.06094
0.06096 8.88771689274077 9.67948789543174 15.52546815361 0.520090118946702 2.53625508290612 0.0609500000000001
0.06097 8.93072238981489 9.5553264178581 15.5099355724588 0.520826074021277 2.53153619179744 0.0609600000000001
0.06098 9.09021366528077 9.8175059766985 15.392402328319 0.529056772038355 2.5119319061622 0.06097
0.06099 8.90876680398974 9.79689560996776 15.4031155435122 0.530105361785681 2.49813065145507 0.0609800000000001
0.061 9.03369281483706 9.88358807786651 15.4177077799279 0.529959792133313 2.53387300824868 0.06099
0.06101 9.08029478020682 9.8922982704154 15.5272910156675 0.534566596027939 2.52568912535298 0.0610000000000001
0.06102 8.95428684078881 9.77633585064329 15.4197700559989 0.526255581997462 2.50255283657311 0.0610100000000001
0.06103 8.96945357719964 9.85636702605019 15.3673034894248 0.525398475867638 2.50586824753374 0.06102
0.06104 8.95763117995235 9.74808727957615 15.5140116269537 0.525709873092589 2.5212023836207 0.0610300000000001
0.06105 8.97422012286898 9.81185939879235 15.4549705444665 0.532874633366242 2.52401426280458 0.06104
0.06106 8.97039644277342 9.75280401990507 15.3371546756143 0.526496627330681 2.50911243823727 0.0610500000000001
0.06107 9.10214627707351 10.0821001082472 15.3359039338195 0.538645035959847 2.52766786989541 0.0610600000000001
0.06108 9.25788414450719 10.1229927699887 15.166667962082 0.546392495503919 2.50489940674818 0.06107
0.06109 9.26304114635545 10.0355832261413 15.2755050214238 0.541074038722168 2.49494084564142 0.0610800000000001
0.0611 9.11993822488264 9.97742422116711 15.3329718366675 0.537113569072782 2.51756670207296 0.0610900000000001
0.06111 8.99377112957435 9.76384596282956 15.5339659245494 0.531740301666691 2.51899274279493 0.0611
0.06112 9.18286787061333 9.84589751899615 15.4637071897471 0.533615172505687 2.51053313714348 0.0611100000000001
0.06113 9.11052381243268 9.84696699683077 15.4003840041204 0.529630529257604 2.5207346902416 0.06112
0.06114 8.95095275555596 9.86586786462535 15.4539482516496 0.526935010898951 2.51892088681872 0.06113
0.06115 9.07670831687633 10.0343302180375 15.3838183314023 0.540791261705853 2.52008498340351 0.0611400000000001
0.06116 9.10387576480371 9.82521691991368 15.5193383317461 0.533274665485805 2.53649538772566 0.06115
0.06117 9.18069892502345 9.94574631284319 15.3813601664124 0.535818294435289 2.51418778517172 0.0611600000000001
0.06118 9.06952313301035 10.0107248548762 15.5042613490493 0.534972628557699 2.52187521850838 0.0611700000000001
0.06119 8.8642479661002 9.55224347419424 15.5622609405138 0.515940401385132 2.51160022985801 0.06118
0.0612 9.03994338480063 9.75593148787809 15.4795869477664 0.524381595970011 2.53030773252374 0.0611900000000001
0.06121 8.93453931014408 9.76544065946834 15.5391068205159 0.528846902115049 2.52407685080736 0.0612
0.06122 8.98233455895939 9.79659428255899 15.4914776679133 0.52231984327006 2.53832554231076 0.0612100000000001
0.06123 8.87757160097694 9.75215718948134 15.6090428193033 0.526229952484404 2.52594993620867 0.0612200000000001
0.06124 8.92319616952019 10.1449215134491 15.3548002502044 0.535395551250499 2.50312347364022 0.06123
0.06125 9.092951700074 10.0872018168457 15.4225033247059 0.541536275677055 2.51959405981837 0.0612400000000001
0.06126 9.107950294301 9.96205248457107 15.5257369119775 0.532948800695745 2.54844808952137 0.0612500000000001
0.06127 9.35166659799993 10.0191852172907 15.3921391600338 0.545089320231334 2.50254770631871 0.06126
0.06128 9.26113697303788 9.9944130738451 15.4386270559569 0.538694918427272 2.50997735731138 0.0612700000000001
0.06129 9.26577457352567 9.91136519013597 15.3851255076972 0.534164394106464 2.51103770308781 0.06128
0.0613 9.19329359572607 9.96342247339983 15.3684437115547 0.539491820394186 2.51408843887811 0.0612900000000001
0.06131 9.03572119744797 9.86755134350916 15.5220589166191 0.525553484222133 2.5292560225454 0.0613000000000001
0.06132 9.17066854104646 9.90831185624845 15.4331886401611 0.534352195857024 2.52197517087644 0.06131
0.06133 9.27950752459589 9.95324557783037 15.356362060994 0.53845907113871 2.51781684008781 0.0613200000000001
0.06134 9.29689758361261 10.0450435316912 15.4150587587282 0.547305905821112 2.51949378550542 0.0613300000000001
0.06135 9.26832505603951 9.98617606796157 15.4424791682865 0.535870561006063 2.5231921462874 0.06134
0.06136 9.19224693709833 9.97709676510366 15.3641697479957 0.539300804669803 2.51490383490215 0.0613500000000001
0.06137 9.01810490896709 9.92494422010356 15.454883580636 0.53030884656457 2.52531448050209 0.06136
0.06138 8.81344567312228 9.75271955281495 15.5596074998061 0.517192686518106 2.52880714040252 0.0613700000000001
0.06139 9.04071139276488 9.80612226988463 15.5666424007521 0.530818355235223 2.53552373918154 0.0613800000000001
0.0614 9.0387663111395 9.70535214901457 15.5641820835335 0.527479651547587 2.53188246817669 0.06139
0.06141 8.96139448300635 9.73592923628271 15.5337597362969 0.529777650372281 2.52198780719507 0.0614000000000001
0.06142 9.00396029835245 9.97925885595009 15.4079003166236 0.53599493098647 2.50754646589158 0.06141
0.06143 9.12156306707392 10.1832598211154 15.4244736003571 0.542768971336316 2.51954336970469 0.06142
0.06144 9.33820778335521 9.99827684483521 15.4053244526925 0.541835158451047 2.52083769348858 0.0614300000000001
0.06145 9.30179759357726 10.2489604724231 15.3553332938903 0.547148869718597 2.54387736110833 0.06144
0.06146 9.19197003602837 10.1038747998988 15.4670739035503 0.536596229933943 2.54484075811555 0.0614500000000001
0.06147 9.11429643042649 9.90972589172086 15.4502828612705 0.530593635008629 2.52386496461526 0.0614600000000001
0.06148 9.1998580662168 9.99281182223955 15.4731638208322 0.54098425230642 2.51803282409234 0.06147
0.06149 9.17064067091925 10.0088921508718 15.4099592913016 0.536218288643007 2.52169448461644 0.0614800000000001
0.0615 9.36740587198846 10.3735946239527 15.2955729770571 0.554864351688892 2.51772056208442 0.06149
0.06151 9.15057874594952 10.2281050849935 15.2720507752954 0.532909623260871 2.52574503904934 0.0615000000000001
0.06152 9.27455488922301 10.3261785210783 15.2709890738154 0.553222082806632 2.52051344413181 0.0615100000000001
0.06153 9.32128208962519 10.3098229096995 15.3592016375253 0.547406471377604 2.53335363453838 0.06152
0.06154 9.43896526885173 10.1872362641733 15.2957147966879 0.550379693573665 2.50769631070811 0.0615300000000001
0.06155 9.3349064533868 10.2842079869896 15.3091140130322 0.559801931917921 2.4871137218089 0.0615400000000001
0.06156 9.15840872907103 10.3110450926979 15.3563272454513 0.539007469771896 2.54521987227009 0.06155
0.06157 9.04774208785294 9.97696261636893 15.5063498103003 0.532137730007033 2.5373484674475 0.0615600000000001
0.06158 8.97658755765822 10.0265289246349 15.4669616290477 0.527655486247099 2.52787394981546 0.06157
0.06159 9.04163068391621 9.70203326024919 15.515432348605 0.528828403100906 2.51718608287088 0.0615800000000001
0.0616 8.99769348616575 9.75795980252979 15.6955651471296 0.520826751756234 2.53935807678005 0.0615900000000001
0.06161 8.91948932079334 9.81153494587826 15.73170252393 0.531834594840548 2.5410590295438 0.0616
0.06162 9.25151047290579 9.77675623575337 15.5628208711598 0.524917446784973 2.54852536725331 0.0616100000000001
0.06163 9.35875541149885 10.0766503725465 15.4327192911265 0.550462824567255 2.5157781966602 0.0616200000000001
0.06164 9.30681137482757 10.2225453441861 15.3842579927402 0.549328142240612 2.52864495420984 0.06163
0.06165 9.13370567908736 10.1507368915183 15.4948958404386 0.542404557335494 2.53551436496671 0.0616400000000001
0.06166 8.93827537745997 9.97749733358768 15.4766056559891 0.533886112864276 2.5095074430801 0.06165
0.06167 9.07086538144832 10.0631835840869 15.5234755492302 0.541339005300032 2.51453344969117 0.0616600000000001
0.06168 9.17491784916623 10.074262800507 15.3063562989695 0.537519387338669 2.5134848424666 0.0616700000000001
0.06169 9.12650624530791 10.1686447146402 15.4692160112701 0.546523433162746 2.51457796086044 0.06168
0.0617 9.31622140096601 10.4084121312465 15.329169687512 0.554755519845673 2.52938631917998 0.0616900000000001
0.06171 9.41983773615217 10.5895966760314 15.1146869225629 0.559146250666626 2.52630069837872 0.0617000000000001
0.06172 9.45976154414724 10.3599999325151 15.2671324766111 0.560732119585839 2.52790069402005 0.06171
0.06173 9.24438210957065 10.2464343226589 15.2496335982291 0.543589222758121 2.50682387038394 0.0617200000000001
0.06174 9.3351907061339 10.335949023286 15.3344316197884 0.553765435870391 2.52328477831822 0.06173
0.06175 9.15073712367509 10.1374336089807 15.3984986778296 0.54067521650935 2.52110135388771 0.0617400000000001
0.06176 8.9049596547068 9.91060897506164 15.5360782555114 0.524740409191081 2.54480829137815 0.0617500000000001
0.06177 8.91678621289656 9.83161421375294 15.6931091233308 0.53021108409552 2.54545020694488 0.06176
0.06178 8.90154135133692 10.1859854932876 15.7158472874267 0.537822780683202 2.52896404251689 0.0617700000000001
0.06179 8.82780777384574 10.1157747499935 15.5699639050893 0.528153071893777 2.54235040188442 0.0617800000000001
0.0618 9.22737224272627 10.1266388672051 15.3635848876646 0.546430615905779 2.53498516427784 0.0617900000000001
0.06181 9.38889503727228 10.1871557498303 15.3387632308653 0.550543607250858 2.53838308505289 0.0618000000000001
0.06182 9.32928606321748 10.2128818178475 15.5114101062851 0.553363638691243 2.54732929917808 0.06181
0.06183 9.44173902245103 10.0359437216062 15.5704793630336 0.546871557093216 2.54455015998528 0.0618200000000001
0.06184 9.35387043208153 10.1100996777553 15.4584494365348 0.5471830631371 2.53570877357519 0.0618300000000001
0.06185 9.45610941099438 10.140185402041 15.4037905464058 0.557177876002279 2.51105323252572 0.06184
0.06186 9.42885958572262 10.2498714810631 15.3936630085575 0.553287719739372 2.52586665587312 0.0618500000000001
0.06187 9.46072795718176 10.2837180369538 15.3075937423107 0.552596072864792 2.52215487666994 0.06186
0.06188 9.37044297134864 10.2579090355134 15.3879783733485 0.54615868615425 2.55482005411402 0.0618700000000001
0.06189 9.42780617409154 10.1398180840974 15.3819749930528 0.547622385517723 2.53939319792312 0.0618800000000001
0.0619 9.39420860051429 10.2196333960683 15.4404546858603 0.556204404882064 2.52353050279587 0.06189
0.06191 9.4392010078467 10.0172553234422 15.5703126212234 0.548461643730839 2.53270601974215 0.0619000000000001
0.06192 9.29007841692395 9.97312607122991 15.6029091274435 0.539795968563859 2.53376546792128 0.0619100000000001
0.06193 9.18276070790563 10.0445706175621 15.5168249638593 0.549119224289054 2.52131796535556 0.06192
0.06194 9.01768237350928 10.0834044265923 15.6141418806253 0.535509466746073 2.56023921082373 0.0619300000000001
0.06195 9.13574944512123 9.76709604152541 15.6752824306101 0.52948468750263 2.55546533180575 0.06194
0.06196 9.04945584106692 10.0332403092147 15.6191509093846 0.539008192018661 2.54244523943979 0.0619500000000001
0.06197 8.93287061301931 10.0552923889127 15.6348584142073 0.531810676411275 2.53708528973606 0.0619600000000001
0.06198 9.29470013276255 10.1571210006522 15.4816302602805 0.543643201793345 2.54007519769387 0.06197
0.06199 9.22901600552343 10.0661235562441 15.623174569147 0.535501772119918 2.55972756845249 0.0619800000000001
0.062 9.21641714221773 9.94414368594917 15.6239396653847 0.537935334320556 2.56264096571856 0.0619900000000001
0.06201 9.23754955691483 10.2593742593445 15.559245225855 0.547111089427095 2.5461773984422 0.062
0.06202 9.14940481653422 10.1935248041471 15.5547755777626 0.538775810941592 2.54116973237182 0.0620100000000001
0.06203 9.27296898584036 10.1136088146855 15.4794143254237 0.549028040927672 2.54237208271212 0.06202
0.06204 9.42822668790778 10.2580258186181 15.4688829495382 0.548069194045385 2.54751287984199 0.0620300000000001
0.06205 9.51004991699149 10.208392638992 15.3742506504834 0.557776999371409 2.52332987621394 0.0620400000000001
0.06206 9.57618306467275 10.5012720950449 15.3228507073359 0.563764869389684 2.53703669015185 0.06205
0.06207 9.80289942745329 10.4200794775006 15.2853024950787 0.569662412879713 2.5231610609832 0.0620600000000001
0.06208 9.61067040738672 10.6046823858637 15.3162264613728 0.567491791889885 2.5181696847839 0.0620700000000001
0.06209 9.44106630677201 10.4621024405986 15.3819212009306 0.561295433514574 2.51497120571899 0.0620800000000001
0.0621 9.38979324776624 10.4468180694678 15.3765471766776 0.558855636266625 2.54666140668285 0.0620900000000001
0.06211 9.26282129730684 10.3934025627555 15.5504282136779 0.552757790376834 2.56123154013459 0.0621
0.06212 9.3835857748973 10.2108222822417 15.6423608205284 0.550628160799279 2.54248576743621 0.0621100000000001
0.06213 9.27946278049406 10.0672973575153 15.5954159338621 0.539332470676732 2.54915453645097 0.0621200000000001
0.06214 9.33699208781315 10.0725712485045 15.572879639939 0.544119767561876 2.53855225927354 0.06213
0.06215 9.13273093452729 10.1274164100821 15.6666108457854 0.548365608251124 2.55420368998319 0.0621400000000001
0.06216 9.27121422811064 10.0473589025697 15.572011610695 0.541810635318994 2.57293940664691 0.0621500000000001
0.06217 9.24158852418548 9.85142534695993 15.7351546326715 0.542956021137682 2.54982077273654 0.0621600000000001
0.06218 9.04968690607708 9.73490588275103 15.8127478500479 0.528121194734679 2.54239396943381 0.0621700000000001
0.06219 9.00279896220479 10.0159203899011 15.7598207477595 0.527317909494222 2.57617914902649 0.06218
0.0622 9.07675189368605 9.86976810843923 15.7129052802987 0.531886405024236 2.54949780253939 0.0621900000000001
0.06221 9.4035243064258 10.0380751741311 15.5121039468399 0.544244248907428 2.53309394879218 0.0622000000000001
0.06222 9.29837661403781 10.162907276574 15.6339266450324 0.549755256156975 2.54081230861381 0.06221
0.06223 9.22112116178986 10.0854208152773 15.6326951364051 0.541693495635744 2.55446588062467 0.0622200000000001
0.06224 9.4271451382513 10.1855605544988 15.5741286348339 0.548577939467097 2.55820633712096 0.06223
0.06225 9.62305548757048 10.4045709989175 15.3644681146504 0.563787641270747 2.53089776119514 0.0622400000000001
0.06226 9.58218896116809 10.3402677559613 15.4267689350848 0.562933874727105 2.53839933786888 0.0622500000000001
0.06227 9.68477886617017 10.3001418356314 15.4578293970111 0.561100317168205 2.52489060681979 0.06226
0.06228 9.47567906307607 10.3560676361225 15.4265155838495 0.55774657190891 2.52800551005525 0.0622700000000001
0.06229 9.3000357552431 10.4792107413872 15.5660497531777 0.560336613130274 2.54894999623783 0.0622800000000001
0.0623 9.47017767522701 10.2861749795309 15.5121226602361 0.555582090282384 2.55798787624192 0.06229
0.06231 9.18634224649719 10.36514927873 15.6123483242459 0.540856370515526 2.56041769581603 0.0623000000000001
0.06232 9.19862713206662 10.1426086976253 15.7099909633366 0.544292681090262 2.55671885260971 0.06231
0.06233 9.27352894492657 10.1115304626017 15.6362978851113 0.542442035312772 2.53800398195847 0.0623200000000001
0.06234 9.12040785188637 10.0619429466726 15.6273418966292 0.534536734609646 2.55032687765873 0.0623300000000001
0.06235 9.4840226916084 10.4232951013231 15.5115976961275 0.562775395897134 2.5521814952308 0.06234
0.06236 9.41200344796154 10.1668018655716 15.6012059340735 0.551703779928293 2.53867237370302 0.0623500000000001
0.06237 9.31009903203057 9.98448359056177 15.7152017692634 0.545114376988689 2.54297397874335 0.0623600000000001
0.06238 9.269334415502 10.2340752780919 15.5471817217569 0.544708143817592 2.55283184544467 0.0623700000000001
0.06239 9.23052769611715 10.2520765187131 15.5982807413272 0.545285047977623 2.5522714936912 0.0623800000000001
0.0624 9.52308412696229 10.1739765390925 15.5795601493897 0.553390035698964 2.55521780132679 0.06239
0.06241 9.32522687465833 10.2970175173206 15.6582753831254 0.546441328079356 2.57241117456176 0.0624000000000001
0.06242 9.37986845628645 10.4946964921021 15.4683865905773 0.556772059266797 2.5570396895046 0.0624100000000001
0.06243 9.54348990572396 10.4145198603156 15.4431275804051 0.554504228768606 2.55769645900662 0.06242
0.06244 9.64776923573742 10.4168641875168 15.3654274197627 0.566229638558869 2.53185478349554 0.0624300000000001
0.06245 9.67480885223779 10.4410777030196 15.466750990062 0.567125731913324 2.54580654261645 0.0624400000000001
0.06246 9.42963277005381 10.1908926476667 15.6141459344802 0.552169567370116 2.54411435143414 0.06245
0.06247 8.99534079379165 10.06220050681 15.7741754245886 0.536477061958381 2.5502608193902 0.0624600000000001
0.06248 9.15446988845413 9.92845613044323 15.6624135026482 0.537859070543291 2.54582644004004 0.06247
0.06249 9.00200202538445 10.1198397944023 15.9080499222007 0.5361190488923 2.58095522444269 0.0624800000000001
0.0625 9.05631518892639 10.156947418212 15.7465167413597 0.543661937801718 2.5543656946581 0.0624900000000001
0.06251 9.09802815636617 10.1606740798425 15.6661088412821 0.536979067831156 2.57865536305365 0.0625
0.06252 9.0627531538742 10.0754281700601 15.646737139337 0.549588923760352 2.54420954826525 0.0625100000000001
0.06253 9.36217079753588 10.2148357743197 15.6485304745764 0.545883063220976 2.5740540861832 0.06252
0.06254 9.25439115285887 10.1384066001568 15.6216849970917 0.542566376134461 2.55769764406355 0.0625300000000001
0.06255 9.41658673411129 10.1150814656178 15.7027659310322 0.549601825232029 2.55586493439347 0.0625400000000001
0.06256 9.37752562834494 10.1522383756201 15.6990831747698 0.544090622743333 2.56257444916666 0.06255
0.06257 9.38844347925061 10.3084154854229 15.6278564213394 0.553878974195854 2.54683409968173 0.0625600000000001
0.06258 9.44215425149812 10.6461823768907 15.5035094561763 0.570710028144652 2.55915518462296 0.0625700000000001
0.06259 9.58092301425301 10.6960160243091 15.416345775271 0.563405470156995 2.55485660576721 0.06258
0.0626 9.64119469723179 10.634371615315 15.344051066542 0.568648157930139 2.54164250483527 0.0625900000000001
0.06261 9.65443417583737 10.6103052673897 15.3042557588828 0.560762992755847 2.56820003985246 0.0626
0.06262 9.70548135522175 10.5695922924312 15.426427456458 0.576438855080701 2.55843646587832 0.06261
0.06263 9.71131945229008 10.6132155862351 15.4784070171869 0.565891639365796 2.56848961505172 0.0626200000000001
0.06264 9.60007972976323 10.3439071801769 15.4433113104329 0.559749546445374 2.55991684899003 0.06263
0.06265 9.39799626012834 10.4645760169585 15.5786232158614 0.56570293665199 2.5485308441153 0.0626400000000001
0.06266 9.17967195883661 10.379764407702 15.7365933861249 0.544080191622992 2.59182425451888 0.0626500000000001
0.06267 9.04063858257784 10.0744190026229 15.7889670489897 0.533138691539194 2.58142690070075 0.06266
0.06268 9.06707866145614 9.93416690681813 15.8517821608348 0.533914950682639 2.57544190010973 0.0626700000000001
0.06269 9.23307795404712 10.1297157876215 15.7537510305577 0.545283059497434 2.57460743234978 0.06268
0.0627 9.17803905043692 10.103563634254 15.9634698721933 0.534724895675684 2.60589017261732 0.0626900000000001
0.06271 9.23693782028123 10.1815806268528 15.7985698098283 0.536222191653224 2.58056990307821 0.0627000000000001
0.06272 9.4389980133073 10.1274443276782 15.6995103948804 0.543268681598988 2.58568291512917 0.06271
0.06273 9.63060766362895 10.2040143319292 15.6903681019092 0.555028897918517 2.557759734205 0.0627200000000001
0.06274 9.62079037275286 10.3104805697911 15.7756779398222 0.553593652974841 2.58726819232835 0.0627300000000001
0.06275 9.48868416792235 10.3035600797033 15.633163220151 0.552373693613597 2.57864911891432 0.06274
0.06276 9.42130996039684 10.2585706872746 15.5900754057514 0.554842673047188 2.55439525371791 0.0627500000000001
0.06277 9.45686679366304 10.1695562557312 15.4909698448576 0.553451911376546 2.5559872650957 0.06276
0.06278 9.33313596833524 10.3419686435058 15.6859806661407 0.552526896477698 2.57715844652069 0.0627700000000001
0.06279 9.4498942153301 10.3180621742802 15.6256532549103 0.549057496107139 2.58668153124347 0.0627800000000001
0.0628 9.54923592273702 10.4207793554238 15.6174743049249 0.564369320814746 2.55671118395257 0.06279
0.06281 9.61965596358805 10.371445691205 15.7435214502793 0.563556358907129 2.58367224412773 0.0628000000000001
0.06282 9.50357822787071 10.4629072547463 15.6706021399905 0.559728999293678 2.56979803280134 0.0628100000000001
0.06283 9.32798856671548 10.3614856028518 15.7206475005812 0.548593713091662 2.57739948534453 0.06282
0.06284 9.2799875800864 10.2907668246024 15.6537980485353 0.548388679667951 2.55019278120029 0.0628300000000001
0.06285 9.06329801636371 10.0994730536773 15.8407624356931 0.534816296637497 2.58058162877853 0.06284
0.06286 9.44775139420658 10.2846702411185 15.7553297110635 0.558313958264695 2.58546191891066 0.0628500000000001
0.06287 9.45117803087478 10.3306521475687 15.7144267041774 0.564591234393259 2.57704476376349 0.0628600000000001
0.06288 9.53161504191627 10.3878251317057 15.676405787436 0.557008660790765 2.57918646806642 0.06287
0.06289 9.70462336360496 10.4333946869141 15.5978207905681 0.565136935525406 2.55757935875339 0.0628800000000001
0.0629 9.66716060146564 10.7806191781125 15.4616213685222 0.570198372553109 2.55646637881689 0.0628900000000001
0.06291 9.7666000903314 10.7054463090648 15.382973025687 0.574234079635068 2.54972563600978 0.0629
0.06292 9.46236921580752 10.4493971652806 15.5324523105483 0.56026365038331 2.56185846890296 0.0629100000000001
0.06293 9.49173547581903 10.403649903986 15.6589898971432 0.561123248102324 2.57927516251417 0.06292
0.06294 9.46798318061022 10.304605786673 15.7071979485073 0.562495083414279 2.57897869687554 0.0629300000000001
0.06295 9.46033519823474 10.319988877312 15.6785141584599 0.553303918345872 2.59853411817915 0.0629400000000001
0.06296 9.42801611225559 10.262082315947 15.6808210266828 0.554132063029252 2.58766313012477 0.06295
0.06297 9.51343555324811 10.3280446956431 15.7414073745865 0.559358906066131 2.59261153543515 0.0629600000000001
0.06298 9.40810551185213 10.3441652849969 15.8356725397345 0.552064621426004 2.59779507401716 0.0629700000000001
0.06299 9.39375772608549 10.2906319046341 15.7546271181135 0.551165394852899 2.58019601130921 0.0629800000000001
0.063 9.27420076285705 10.201396710404 15.8672888394626 0.546635813679543 2.59226917835724 0.0629900000000001
0.06301 9.35198710862495 10.3061265393463 15.9440432147264 0.555726008759949 2.59470792579128 0.063
0.06302 9.39625411169731 10.3160966981886 15.8641115053306 0.550664275002298 2.60808932147972 0.0630100000000001
0.06303 9.2179479255655 10.2023582291104 15.9356099610958 0.543439990277028 2.60837975254989 0.0630200000000001
0.06304 9.16939301303252 10.2545755059528 15.8238393439698 0.546313655806266 2.58154216843265 0.06303
0.06305 9.58312432344099 10.4546269267192 15.7200640666655 0.567558099427702 2.57879910085459 0.0630400000000001
0.06306 9.45847314914752 10.4051599461418 15.7102310318666 0.559012219567248 2.5747346021267 0.0630500000000001
0.06307 9.58594208694881 10.3225669531717 15.7383712090684 0.559596325755895 2.59347898817176 0.0630600000000001
0.06308 9.64394726729945 10.6582301281901 15.7365491698726 0.570809547089198 2.60282337584322 0.0630700000000001
0.06309 9.50337644219567 10.6050422174342 15.6785214704501 0.567444856235956 2.58192388303905 0.06308
0.0631 9.57401841220907 10.5707992567607 15.5798941504631 0.560940667058338 2.58084775663895 0.0630900000000001
0.06311 9.50544399450786 10.5015065196757 15.6280123902205 0.56375219108159 2.57456696494129 0.0631000000000001
0.06312 9.46624793521198 10.2012391118865 15.7177056183941 0.553149171661356 2.55977181548006 0.06311
0.06313 9.53907912411043 10.2899330175003 15.6831246565965 0.560227182259421 2.58889675020138 0.0631200000000001
0.06314 9.5250881413927 10.5724726672445 15.7004823793913 0.568401243049025 2.58008583873878 0.06313
0.06315 9.65969933727481 10.3391047063479 15.7175044832296 0.560801946554776 2.56637868570321 0.0631400000000001
0.06316 9.50717437452068 10.4163350647816 15.7595845434229 0.552295282806461 2.58070635144086 0.0631500000000001
0.06317 9.47724645658808 10.4938166018066 15.6458334074491 0.566873830060179 2.56185959325099 0.06316
0.06318 9.53733149738154 10.4357656166838 15.6494241384224 0.557417843012047 2.569351289208 0.0631700000000001
0.06319 9.46122961954609 10.3992375455782 15.7113098084522 0.557619163089741 2.58217713800184 0.0631800000000001
0.0632 9.34488872755521 10.4426545910658 15.7420407198311 0.558758105594616 2.58084741836205 0.06319
0.06321 9.24958357062091 10.4003805140184 15.8631664375746 0.547051675635853 2.59473063555405 0.0632000000000001
0.06322 9.43927752306111 10.2705546478643 15.8322877535043 0.551053886095484 2.60405410343948 0.06321
0.06323 9.52771276527118 10.2899604045063 15.8887852702438 0.562754404846148 2.58885804351882 0.0632200000000001
0.06324 9.45008939243435 10.2674424592518 15.7897316108629 0.548352389303895 2.60260830214933 0.0632300000000001
0.06325 9.51926324609335 10.3071199540189 15.8142236778969 0.55984730149166 2.57493738477926 0.06324
0.06326 9.64287315328516 10.393365173345 15.8235541032743 0.56146552412854 2.59949378745102 0.0632500000000001
0.06327 9.61560920161335 10.3822153421828 15.8336658961453 0.559653044473562 2.59242797872137 0.0632600000000001
0.06328 9.5040083930162 10.5287175692581 15.6707292247793 0.556557930195479 2.59263467645926 0.0632700000000001
0.06329 9.54606172687918 10.2079644778523 15.7930279660666 0.55521100452852 2.59030626540518 0.0632800000000001
0.0633 9.55343182347106 10.2189986800415 15.7744546784438 0.558866142184861 2.57412234336488 0.06329
0.06331 9.56438429151231 10.3472498648516 15.7467399563505 0.554826609827162 2.59761841754835 0.0633000000000001
0.06332 9.82759463230588 10.4384582155866 15.7705265428472 0.573201928369023 2.57507992416325 0.0633100000000001
0.06333 9.77026923350356 10.4170882828803 15.8336524170089 0.572034806104259 2.57499583915191 0.06332
0.06334 9.6483147041143 10.3719951259265 15.7601406992236 0.555430269145933 2.5914680288703 0.0633300000000001
0.06335 9.65811333987822 10.4581468895343 15.765089229565 0.56319208352611 2.59520447135757 0.06334
0.06336 9.67012788805242 10.5154682562098 15.7655269689896 0.569983582390372 2.58200714038037 0.06335
0.06337 9.71092543155473 10.5217851710594 15.8022358940152 0.573104391770073 2.59507700635754 0.0633600000000001
0.06338 9.35197208247574 10.4251309562876 15.9013032587583 0.557393822469496 2.61196925587442 0.06337
0.06339 9.4263739011658 10.4127460343748 15.9794953414415 0.556909525362694 2.60631015579734 0.0633800000000001
0.0634 9.37842147408945 10.4642587447881 15.8773913976773 0.557500243476721 2.5867050124577 0.0633900000000001
0.06341 9.33150056941035 10.4426385462765 15.9245112034458 0.547721418322019 2.61659209493627 0.0634
0.06342 9.50946724207882 10.570985416621 15.8732875218306 0.559967663264587 2.60791335717773 0.0634100000000001
0.06343 9.38989365789676 10.4931653657002 15.9755734921748 0.558137858971607 2.6007524057786 0.06342
0.06344 9.39080580997192 10.1919491346893 15.8559540328968 0.549773231964327 2.58921869928803 0.0634300000000001
0.06345 9.37163390751809 10.4894469877445 15.8569648126416 0.5576020179865 2.60584690155283 0.0634400000000001
0.06346 9.62230425120959 10.5332135462225 15.7846679516869 0.571445632217436 2.57859530291791 0.06345
0.06347 9.65136762502925 10.5451961241107 15.6630665421131 0.560868681977263 2.57686171217865 0.0634600000000001
0.06348 9.62199995786919 10.6691210006867 15.5877093049142 0.566468233852005 2.58738147361335 0.0634700000000001
0.06349 9.53188376631431 10.7322132512804 15.7338310254008 0.561245159592036 2.6001141791872 0.06348
0.0635 9.53369977948193 10.5177307655431 15.7585209910954 0.568470571070373 2.59150529246245 0.0634900000000001
0.06351 9.67064273242082 10.6358509256453 15.6817876282744 0.567427031374976 2.59336758430289 0.0635
0.06352 9.84920555600437 10.7190337033262 15.6923840283642 0.57981432046828 2.59934006403503 0.0635100000000001
0.06353 9.70408946653541 10.7262977457919 15.7772146407894 0.572806911578934 2.60500485500886 0.0635200000000001
0.06354 9.57425250147825 10.6002713897417 15.6805761795538 0.566255273589165 2.58844064110672 0.06353
0.06355 9.5463937609837 10.40430061665 15.7907677980582 0.560568816034937 2.59908984269945 0.0635400000000001
0.06356 9.47534477792339 10.4671557611775 15.8916989205202 0.56501812970123 2.5979027279782 0.0635500000000001
0.06357 9.5176167431555 10.2553773535181 15.8979808167637 0.551009492302916 2.61057756414185 0.0635600000000001
0.06358 9.43334368051643 10.3194346770014 15.8253776244084 0.560654500499455 2.58609948880598 0.0635700000000001
0.06359 9.36740103320167 10.3827495654429 15.9632897133942 0.551323444235192 2.61156356551234 0.06358
0.0636 9.37426031698207 10.1567063222103 15.9811890668435 0.547303898390685 2.61801406478316 0.0635900000000001
0.06361 9.27785376472719 10.4014142871561 15.9273647637785 0.555336435919003 2.60104938064934 0.0636000000000001
0.06362 9.60043315885824 10.4138834185521 15.7936176300849 0.565182388348427 2.6077288651436 0.06361
0.06363 9.69005346775608 10.4606713155247 15.8358112741912 0.567156361940761 2.60680061341631 0.0636200000000001
0.06364 9.75422669035323 10.57713042036 15.7717495942852 0.576741769985359 2.58590651127248 0.0636300000000001
0.06365 9.67171456812674 10.546216970659 15.8172808101437 0.563922545415458 2.61075106993397 0.06364
0.06366 9.54778142509389 10.5578493887037 15.9804494723934 0.562484637542324 2.60885247574829 0.0636500000000001
0.06367 9.6874261173571 10.5528242192023 15.6535633571972 0.56887590979552 2.59646391514532 0.06366
0.06368 9.77505322316385 10.5644212602123 15.7145993232493 0.567815220799884 2.60315788849302 0.0636700000000001
0.06369 9.54197726796749 10.7096895262 15.7762081548009 0.56695584601089 2.61338444777789 0.0636800000000001
0.0637 9.73022934560957 10.7713412010815 15.8071693088913 0.580969621939248 2.59636537369429 0.06369
0.06371 9.70676450972554 10.2887394741608 15.915829839541 0.558562671839218 2.60129806408249 0.0637000000000001
0.06372 9.57770604862677 10.3580387209512 15.8952351849649 0.562177636083802 2.59299009609709 0.06371
0.06373 9.34616028757262 10.5302009529033 15.7776793819438 0.556569212561076 2.58732108883776 0.0637200000000001
0.06374 9.32747677831795 10.4586086970612 15.8513047860699 0.551787179738808 2.60770570542132 0.0637300000000001
0.06375 9.54443147361045 10.6366050203937 15.7196593991604 0.561283504138669 2.59757575463985 0.06374
0.06376 9.55474877550607 10.6141851865538 15.8005026783973 0.574746681044285 2.59800188012853 0.0637500000000001
0.06377 9.63558916442681 10.6467513767818 15.8983641529167 0.562541921482914 2.62968611544268 0.0637600000000001
0.06378 9.62795715959496 10.565848579287 15.796143653499 0.566759936381938 2.60098126638277 0.06377
0.06379 9.77046300491163 10.5281511121072 15.7308095476021 0.565890742897172 2.59855945425952 0.0637800000000001
0.0638 9.63742561373456 10.7136459105841 15.807559207589 0.569409892680749 2.61283456325637 0.06379
0.06381 9.84391496430715 10.5528472072321 15.8563036094302 0.574524084831168 2.58910325381632 0.0638000000000001
0.06382 9.63717263624419 10.4564247077734 15.8182834960681 0.562190604619854 2.58779017887263 0.0638100000000001
0.06383 9.78951759937844 10.6457211202001 15.6916615606649 0.576991009369537 2.58277348189372 0.06382
0.06384 9.49612236481654 10.5793406200034 15.8529807467884 0.560657677948 2.59813633419738 0.0638300000000001
0.06385 9.59526208602232 10.6325194851568 15.762831450339 0.566677567879051 2.60187776888916 0.0638400000000001
0.06386 9.63299673097842 10.4428676438356 15.8154686232215 0.562542699204784 2.60129518171307 0.06385
0.06387 9.5979769361998 10.3952404335901 15.8991897067089 0.562161772359208 2.59858141160294 0.0638600000000001
0.06388 9.6969891648891 10.5652862341872 15.7614666754135 0.56980653675349 2.59428709476222 0.06387
0.06389 9.61437894211511 10.4728278336166 15.8339044694689 0.563572824519586 2.58949463118124 0.0638800000000001
0.0639 9.51651661373705 10.536253656649 15.8371294087678 0.556854228511983 2.60723798091405 0.0638900000000001
0.06391 9.33304733528591 10.3798045057227 15.978264664365 0.55875695061272 2.59594963913075 0.0639
0.06392 9.399213478509 10.3850867779832 15.9487313126322 0.54599857904115 2.61406328676009 0.0639100000000001
0.06393 9.39371566436756 10.3019380262242 16.0247256275731 0.557511435341023 2.61952652973332 0.0639200000000001
0.06394 9.49322040255126 10.5039644300974 16.0304704561238 0.562625683346842 2.61884227341279 0.06393
0.06395 9.60900251621963 10.503480180006 15.9214023469723 0.559616772198392 2.60430865588597 0.0639400000000001
0.06396 9.57432798438496 10.4550540413066 15.8709268617744 0.561088027592113 2.60894455930932 0.06395
0.06397 9.76903444725127 10.6395224483451 15.8969431983887 0.574665092718039 2.60784582469029 0.0639600000000001
0.06398 9.6832980500872 10.4961147059179 15.9136905589219 0.564695941213151 2.60958845927024 0.0639700000000001
0.06399 9.79377490532755 10.5808254618911 15.7485693713147 0.568888922914174 2.59990443980615 0.06398
0.064 9.7292011981994 10.7888809591797 15.76164289447 0.577799481569945 2.60932730291097 0.0639900000000001
0.06401 9.93388666073741 10.8000974880132 15.6751571420359 0.577123349668145 2.6151713864433 0.0640000000000001
0.06402 9.57561865581075 10.6823243665022 15.8714858097514 0.567336385188113 2.62139422149473 0.0640100000000002
0.06403 9.53737130918252 10.6470776876979 15.7843355630747 0.567901720004351 2.59904040713306 0.0640200000000001
0.06404 9.61255349010219 10.5109520644847 15.9056433738433 0.560927551720733 2.61488410545806 0.06403
0.06405 9.82790442198397 10.4711256065994 15.8732587156233 0.57122910987982 2.6174073098922 0.0640400000000001
0.06406 9.94006280774427 10.8008495905488 15.6525463238818 0.584011522414135 2.598612770784 0.0640500000000001
0.06407 9.87191200873581 10.6356859458454 15.7576395313654 0.574732366649031 2.60981152132061 0.06406
0.06408 9.72755663788413 10.7125181295315 15.6666358042589 0.574717979608737 2.6059784681244 0.0640700000000001
0.06409 9.57949384862442 10.6603385968741 15.867215912406 0.567288173852461 2.62338798520883 0.0640800000000001
0.0641 9.49802461771022 10.2567381677211 16.0808465699356 0.556325957526665 2.62347289962488 0.0640900000000001
0.06411 9.30685386287604 10.3053042722418 16.0652507261614 0.54647508818964 2.61390699783729 0.0641000000000001
0.06412 9.35192011918673 10.3894646068132 15.9961023401645 0.551315839505644 2.60954133266478 0.06411
0.06413 9.47212202261804 10.4624707267317 16.033040150739 0.560966805887203 2.61256839368353 0.0641200000000001
0.06414 9.67319501590013 10.5130714048738 15.9417366737784 0.562769538068813 2.60503181273395 0.0641300000000001
0.06415 9.89159669084922 10.7440809214414 15.7767549134218 0.583641325740821 2.60275777038942 0.06414
0.06416 9.83205535736716 10.7831562782264 15.6754110329306 0.582145763508741 2.58888075927314 0.0641500000000001
0.06417 9.83816450908745 10.6923554227795 15.703934840858 0.57107544699845 2.6062771720549 0.0641600000000001
0.06418 9.860009091487 10.7913717742539 15.764370966188 0.581551004135311 2.61523682217207 0.0641700000000001
0.06419 9.73197479791774 10.6710119350455 15.9448923682903 0.566387268940682 2.62789953224222 0.0641800000000001
0.0642 9.54352012608733 10.3733217200644 16.1088331993891 0.558030762171538 2.63169560975521 0.06419
0.06421 9.51556390689565 10.453072781756 16.1335521819861 0.558313984628813 2.64044656487247 0.0642000000000001
0.06422 9.57218223036351 10.4563037240878 15.975619116135 0.564521837495397 2.6136562459712 0.0642100000000001
0.06423 9.54236886026153 10.5530023636291 15.8921595068364 0.559023498179129 2.61809710844282 0.06422
0.06424 9.66912027592974 10.5158961262544 15.900087710953 0.567670349660929 2.62525281659396 0.0642300000000001
0.06425 9.47308886254976 10.4246762873208 16.0840247932364 0.560768530446208 2.61604349886472 0.06424
0.06426 9.43243565456988 10.3915482583784 16.1635113796466 0.551754773532577 2.63048055389003 0.0642500000000001
0.06427 9.62079652783054 10.4871827831037 15.9929481019324 0.560573551469142 2.61677356564825 0.0642600000000001
0.06428 9.69486853305116 10.5966031494254 15.9195042040508 0.572607955847307 2.60572255861236 0.06427
0.06429 9.45743472309049 10.6218418010952 16.0193095366668 0.569253041995254 2.61678067659878 0.0642800000000001
0.0643 9.68490395311344 10.5623131232679 15.9417067557486 0.562989155321277 2.62720873714277 0.0642900000000001
0.06431 9.98235612053323 10.8082772047764 15.8923524740814 0.586101719099175 2.60259616959894 0.0643000000000001
0.06432 9.99010916758667 10.7989715311016 15.8360451433296 0.584712292371373 2.61355195954211 0.0643100000000001
0.06433 9.9092872600925 10.8340642218242 15.7661489218589 0.579000111636797 2.6186844418317 0.06432
0.06434 9.8782322887231 10.7688810955069 15.910502615679 0.584029582746526 2.62316024092497 0.0643300000000001
0.06435 9.93667236585324 10.9114469766019 15.7728461221545 0.589191608379234 2.59360236186438 0.0643400000000001
0.06436 9.92682615355066 10.8398965555533 15.8531317203254 0.586244641176366 2.6136230446386 0.06435
0.06437 10.1166092555534 10.8597521668087 15.8198140856405 0.588893765578768 2.61993259343896 0.0643600000000001
0.06438 9.95255822966741 10.6763645232024 15.9199333160691 0.581525359365759 2.61789963622128 0.0643700000000001
0.06439 9.68878909594238 10.4641641993693 15.9548837828366 0.56253956184373 2.62189603246137 0.06438
0.0644 9.51696325331995 10.4643676927682 16.0981000116077 0.550334938574115 2.63167681614491 0.0643900000000001
0.06441 9.64999312321507 10.4776288707617 16.0275891418129 0.561150218843929 2.62580392250966 0.0644
0.06442 9.74773280086899 10.626632201857 15.9275513750357 0.569673503311943 2.62415872257717 0.0644100000000001
0.06443 9.67981323883253 10.4048806878107 15.9978142847758 0.556632709665712 2.63968695937588 0.0644200000000001
0.06444 9.72231684794381 10.5624298744804 15.9373688442756 0.570469130013565 2.62423550928159 0.06443
0.06445 9.65571772654678 10.5651384976214 16.0479230600574 0.55763368142743 2.65148997696045 0.0644400000000001
0.06446 9.62193086397691 10.5912958699645 15.9725367388974 0.568012275240672 2.63138996371535 0.06445
0.06447 9.48249845696067 10.3807027535309 16.1190257993828 0.561120246503621 2.62925882030181 0.0644600000000001
0.06448 9.6160654693874 10.4474254985525 16.1262287457726 0.557938580104161 2.65105128222495 0.0644700000000001
0.06449 9.62208576234606 10.6360497581935 15.9876023065541 0.563984498498226 2.63502931816441 0.06448
0.0645 9.65619481043036 10.6867132825968 15.9804259591677 0.577962013176082 2.62621716568185 0.0644900000000001
0.06451 9.77952599316197 10.8366800051392 15.9120845685623 0.569986993122621 2.64666835686754 0.0645000000000001
0.06452 9.76429759120171 10.8056655051401 15.8732529947118 0.573810471594997 2.64037110024295 0.06451
0.06453 9.96064110207178 10.7236583577583 15.9045066242449 0.577116682561443 2.64678533479618 0.0645200000000001
0.06454 10.0587856889183 10.818276272831 15.910580408328 0.587121986501158 2.6294953974738 0.06453
0.06455 9.77665004424032 10.7404620467805 16.0837098882218 0.579550298425432 2.6195363919931 0.06454
0.06456 9.77487474541708 10.7190256603552 15.9229504804206 0.574077240400969 2.61805169561491 0.0645500000000001
0.06457 9.69525860067966 10.6570786089639 15.9947523281758 0.569491855701865 2.62761494706796 0.06456
0.06458 9.90246405482296 10.6965907479193 15.9525687439774 0.581497550685041 2.61687138429039 0.0645700000000001
0.06459 9.93112361522238 10.7759937339785 15.8432613905397 0.575298857643477 2.60959794007033 0.0645800000000001
0.0646 9.61537327247806 10.6491541324038 15.9889024635688 0.573394798472899 2.61358593725889 0.06459
0.06461 9.64190631392982 10.7554731305921 15.9692229882649 0.570256477871953 2.63424270382502 0.0646000000000001
0.06462 9.75652745400446 10.7716183973642 16.1021038495386 0.577759724253886 2.64600837823498 0.06461
0.06463 9.91957089645446 10.780935226927 16.0420326992032 0.586009182636073 2.62334498574844 0.0646200000000001
0.06464 9.86255564914243 10.9476816159989 15.9782025356144 0.584506814133525 2.630205299052 0.0646300000000001
0.06465 9.73587696199625 10.7482800341484 16.0218515960075 0.576398083837411 2.63127216343468 0.06464
0.06466 9.58165783472663 10.6297141189152 16.1133079463018 0.570945961258405 2.63487860966536 0.0646500000000001
0.06467 9.73826738501936 10.8791364082264 15.8728396052593 0.574228394818256 2.64018788411297 0.0646600000000001
0.06468 9.98730046643343 10.9216976388986 16.1368369543774 0.58517339920484 2.67375843501761 0.06467
0.06469 9.70070928169866 10.6600139446229 16.1336696075756 0.564849260755447 2.65430250896905 0.0646800000000001
0.0647 9.71188812876662 10.6059453076488 16.0261427202444 0.57321033068268 2.63081855593847 0.06469
0.06471 9.81953759142982 10.7839993611053 16.0486595838681 0.579300812048272 2.62934677131402 0.0647000000000001
0.06472 9.76544637976748 10.8400907845117 15.8865425056615 0.580965733400822 2.62997394891817 0.0647100000000001
0.06473 9.75233053144957 10.8612273270712 15.9932753059286 0.578650023298179 2.65193007920712 0.06472
0.06474 9.72617875674442 10.6995781020245 16.1129618052776 0.577118414414123 2.64327482609876 0.0647300000000001
0.06475 9.8563480097064 10.6619838910811 16.1231777584896 0.57769911013462 2.64834897289836 0.0647400000000001
0.06476 9.81886312577056 10.5360736665482 16.0954697745052 0.566677635917452 2.66542782940632 0.06475
0.06477 9.8365030561462 10.6519292415174 16.0795184855905 0.579598247547303 2.63288862380855 0.0647600000000001
0.06478 9.65023989121791 10.6901177189329 16.0591859655096 0.566396641543602 2.6439968537656 0.06477
0.06479 9.95367871828601 10.6953176007051 16.0930850811803 0.585730890372163 2.63797484916905 0.0647800000000001
0.0648 9.95809100652584 10.6936778382026 16.091614359334 0.569036868296297 2.65680442074401 0.0647900000000001
0.06481 9.74999327048113 10.6358448480076 16.0578767293892 0.574469488703756 2.62727384407101 0.0648
0.06482 9.70755877685154 10.6328876363987 16.1245352151312 0.575895966390478 2.64153039394581 0.0648100000000001
0.06483 9.67261849263935 10.6910914975898 16.1639537991219 0.574795958689327 2.64988088883399 0.0648200000000001
0.06484 9.64531339323444 10.7461507877287 15.9892028480813 0.573609275273448 2.63328870548719 0.06483
0.06485 9.62662203813554 10.7673602261569 16.1501687753074 0.572591359619544 2.64559878736017 0.0648400000000001
0.06486 9.54256753477746 10.6290734127484 16.1211634063908 0.567793670732229 2.65414064301497 0.06485
0.06487 9.94661692563998 10.8432603535437 15.9198870879378 0.582137574773056 2.63934535179917 0.0648600000000001
0.06488 9.99312805120697 10.7391785114389 16.0154633039458 0.579979556143432 2.64786942165966 0.0648700000000001
0.06489 9.95914938143628 10.8880186231915 15.8790893860326 0.586198203842552 2.63094365279221 0.06488
0.0649 10.0013695960322 11.0659936635881 15.8669967747182 0.588203743561155 2.63166109196464 0.0648900000000001
0.06491 9.84048280961039 10.999342738713 16.0072694917124 0.583306194092123 2.64239675679367 0.0649000000000001
0.06492 10.0535800543752 10.8918250582402 15.9257023108292 0.585706849562096 2.65978021226951 0.0649100000000001
0.06493 10.0051433085824 10.7725848400081 15.8533360849348 0.586459748533587 2.6274699576049 0.0649200000000001
0.06494 10.1003479493147 10.822531983732 16.0215835380125 0.589092989834675 2.64823201285018 0.06493
0.06495 9.89182881248899 10.757871497127 16.013614641164 0.576872983817185 2.66028309596111 0.0649400000000001
0.06496 9.8673453820089 10.8319688676564 16.121592446721 0.580642491672495 2.64374048441227 0.0649500000000001
0.06497 9.67991457444349 10.6995604519547 16.0914521580558 0.569417614655545 2.63349171026649 0.06496
0.06498 9.64568392400708 10.6223546590567 16.2731571555832 0.560572371900654 2.67893510146032 0.0649700000000001
0.06499 9.70224119963648 10.6157099784386 16.1841995676134 0.563782872787792 2.65824419990858 0.0649800000000001
0.065 9.50541381677001 10.6285727173516 16.1793223737457 0.563122153433042 2.65435373580792 0.0649900000000001
0.06501 9.45457314153358 10.6145078620644 16.3098595575966 0.558751331695857 2.69273892891085 0.0650000000000001
0.06502 9.59895630211615 10.5144278473107 16.3400556725756 0.562650990773701 2.68164994044747 0.06501
0.06503 9.56416409440529 10.5077546504263 16.2698984653243 0.561061872879858 2.6446821678293 0.0650200000000001
0.06504 9.79844842625907 10.8152199299461 16.1851734527486 0.575308490329308 2.65853623745773 0.0650300000000001
0.06505 10.0790521551044 10.9458077850902 15.979594997071 0.592960943790943 2.64059449364166 0.06504
0.06506 9.92414182470805 10.8909019995803 15.9655369690496 0.591264373814524 2.62580768941159 0.0650500000000001
0.06507 10.0222802625161 10.9318850945449 15.9477847679203 0.588155291507967 2.64107513948901 0.06506
0.06508 9.8136066876475 10.7160427094681 16.1261951899843 0.573737805649866 2.66865513758664 0.0650700000000001
0.06509 9.89491940643752 10.9991827490788 16.0519356184102 0.584685478073276 2.66055538831444 0.0650800000000001
0.0651 10.1796786799594 10.9290964295189 15.9639586223212 0.591980073344163 2.6354454709126 0.06509
0.06511 9.96155578797763 11.017787592031 15.9039708612582 0.58915162561173 2.64774560498259 0.0651000000000001
0.06512 10.0129130635378 10.8199686441067 16.028652428586 0.584353296389579 2.63902473983049 0.0651100000000001
0.06513 9.93563104898579 10.6623640764241 16.1685424646401 0.576357311589251 2.64312025307346 0.06512
0.06514 9.71720348107197 10.7338932270076 16.2053967189625 0.571510072169336 2.66090655868038 0.0651300000000001
0.06515 9.87505897391533 10.7126346718342 16.2121086329128 0.577776057030354 2.67300140714964 0.06514
0.06516 9.75839256602715 10.7746755200094 16.1056552811671 0.573683398254084 2.65217323909713 0.0651500000000001
0.06517 10.0000655436355 10.7340663696784 16.1049855881722 0.584768265246941 2.63061499448154 0.0651600000000001
0.06518 9.7124511366297 10.8118816916211 16.1740526208308 0.572666174324583 2.65136642726322 0.06517
0.06519 9.72405372735152 10.5748891242089 16.1901310000819 0.564976016501278 2.6504680368871 0.0651800000000001
0.0652 9.97101597137465 10.7114959271738 16.189839387001 0.577981136952427 2.66183847462785 0.0651900000000001
0.06521 10.06865094967 10.8480615811269 16.0441811345732 0.592730866521937 2.62701580080954 0.0652000000000001
0.06522 9.97396856003787 10.7939817274472 16.1163454939177 0.577829913656363 2.64644904226871 0.0652100000000001
0.06523 9.73697704163497 10.80122969436 16.2880251857151 0.579497602140293 2.65412753669564 0.06522
0.06524 9.85754249974742 10.9241854813641 16.1067483535318 0.58791192023784 2.63946203339093 0.0652300000000001
0.06525 9.88866658679612 10.9503201695404 15.9740189951992 0.583165464558574 2.64153952483949 0.0652400000000001
0.06526 10.0916796357391 11.05045404804 15.9654982642772 0.591554452100941 2.64062944092186 0.06525
0.06527 10.0583387817092 11.0718326062992 16.0932972883751 0.591096673479934 2.63625282594383 0.0652600000000001
0.06528 9.85695540048395 10.7839036381461 16.1447747936495 0.578064847145051 2.64250931473438 0.0652700000000001
0.06529 9.80179945390396 10.7224131182014 16.0681983936673 0.584035696861946 2.61677922006489 0.0652800000000001
0.0653 9.89675289434358 10.7188345352635 16.1422179977842 0.573025247754197 2.66791482592844 0.0652900000000001
0.06531 9.73104057311219 10.8895137734101 16.1750429513904 0.583484511305212 2.66351333405554 0.0653
0.06532 9.74339537384685 10.7775563976813 16.18935594878 0.576493890399775 2.6397814794883 0.0653100000000001
0.06533 9.81108506550013 10.8692956186727 16.1998388817378 0.581406627563411 2.6645281353529 0.0653200000000001
0.06534 9.56919542415274 10.5560974874594 16.2253683726863 0.572052580019362 2.66034117245948 0.06533
0.06535 9.80717727149739 10.5638214841603 16.2969016956533 0.57272023622628 2.66806321295933 0.0653400000000001
0.06536 9.54802347149832 10.5040256072241 16.3831398232969 0.555157756980497 2.68708533154519 0.06535
0.06537 9.56322775076317 10.5015273655004 16.3895321639111 0.562318204490345 2.66789445997298 0.0653600000000001
0.06538 9.72453339573582 10.6680213041342 16.2403419677083 0.57073583779626 2.66322533253229 0.0653700000000001
0.06539 9.97467143323435 10.7226414051195 16.2034385095416 0.575544982479532 2.6797152031327 0.06538
0.0654 10.1752962737158 10.7679127974645 16.0287626780993 0.593569812463886 2.63632074514502 0.0653900000000001
0.06541 10.2533743199727 10.9585786731426 15.9934763733633 0.587718315825306 2.65498452014791 0.0654000000000001
0.06542 10.1353713111682 11.0161310013521 16.20239791219 0.596182117818135 2.67333242546925 0.06541
0.06543 10.1682654314602 11.0373292884406 16.0223304601561 0.596069793354814 2.66328967049843 0.0654200000000001
0.06544 10.0239981696366 11.0656937226662 16.0043520799463 0.594861549717085 2.6474589220373 0.06543
0.06545 9.96190509097928 11.0001841615019 16.1230167280639 0.587753329974508 2.66309966278014 0.0654400000000001
0.06546 10.0231057570022 10.9573110173458 16.1197711848573 0.576939530925633 2.68711148772905 0.0654500000000001
0.06547 9.76923596587028 11.0037958630504 16.2072318913976 0.586447710504024 2.65041327949994 0.06546
0.06548 9.79246782419421 10.8125115815112 16.3070448009528 0.581383690292892 2.66815016121994 0.0654700000000001
0.06549 9.82177709158804 10.5875181504669 16.357046161889 0.571788520011728 2.6799101255763 0.0654800000000001
0.0655 9.99442553608764 10.8798838282203 16.2070448397508 0.58809122696019 2.65799102424003 0.0654900000000001
0.06551 9.72491353626125 10.9088644233035 16.1633691409181 0.584826357770981 2.64587585442528 0.0655000000000001
0.06552 9.98604074889445 11.0767827176158 15.9612925926722 0.588986256238129 2.6614166489202 0.06551
0.06553 10.0070987720819 11.03200082608 16.1163414625596 0.599996522740716 2.66010985381011 0.0655200000000001
0.06554 9.94016519210258 10.8217044923686 16.195990550908 0.580486131082951 2.66054035082045 0.0655300000000001
0.06555 9.83444520019608 10.7302585918191 16.1776656096798 0.579979949552822 2.66121061170626 0.06554
0.06556 9.82663057764791 11.0359200278885 16.084377525672 0.582552337039538 2.68184981990662 0.0655500000000001
0.06557 9.91182217011392 10.9617550110786 16.1708202878629 0.58319770955437 2.67496659011116 0.06556
0.06558 10.0369853967166 10.7731011606299 16.2348512828833 0.583307971945291 2.6767641780023 0.06557
0.06559 10.0825347811932 10.8285295610973 16.200455524413 0.591301170630476 2.66523204697377 0.0655800000000001
0.0656 9.86728304229691 10.6105830871973 16.3719991808221 0.575257226284192 2.67254347510214 0.06559
0.06561 9.89594460564197 10.6464589403872 16.2883174867368 0.581849213140614 2.65683061516552 0.0656000000000001
0.06562 9.95221631470887 10.8466132220074 16.1907949902905 0.589924332066578 2.65037138688857 0.0656100000000001
0.06563 9.93138633582354 10.9387593766564 16.2889084275491 0.584922520136788 2.67475643957868 0.06562
0.06564 9.99210441469861 10.7784479520408 16.2978618381491 0.574940306516164 2.68538127835585 0.0656300000000001
0.06565 9.78281064788332 10.8164641754942 16.3534471135715 0.581382117041042 2.66614221011018 0.06564
0.06566 9.78883855775081 10.7230503130539 16.3509023324276 0.565399179481771 2.68896237454992 0.0656500000000001
0.06567 10.0178709994107 10.8118838139171 16.2024849320065 0.589993332083043 2.64661134526657 0.0656600000000001
0.06568 10.1794350387923 10.9073902672005 16.1589285111047 0.59314163192926 2.64255552642242 0.06567
0.06569 10.1046110857137 11.0441013548992 15.9957419856631 0.591844186007049 2.65218709744572 0.0656800000000001
0.0657 10.2297256566041 11.1809447089904 15.9979215620413 0.600782786030198 2.66902353235815 0.0656900000000001
0.06571 10.2470708992746 11.2167895003353 16.0321530547505 0.604930273183741 2.67493197262469 0.0657
0.06572 10.0257739737409 11.1830182950884 16.1258566713059 0.592207532715436 2.68040427584799 0.0657100000000001
0.06573 9.81564505659999 10.6668793107762 16.3139777280235 0.573427501128909 2.67396440850502 0.06572
0.06574 9.84344555486924 10.5633486835914 16.437521567229 0.563684342766741 2.70124933089838 0.0657300000000001
0.06575 10.0048369661263 10.8648524891216 16.2917472924203 0.586404848269363 2.6603193663636 0.0657400000000001
0.06576 9.97987988647742 10.853902385147 16.2558044327909 0.586936773800174 2.67508813638796 0.06575
0.06577 9.77561120711581 10.9632302799193 16.2419754192948 0.581351935048755 2.66415847377272 0.0657600000000001
0.06578 9.75303325119082 11.0398205026996 16.2251149141381 0.590792074116998 2.66501961364808 0.0657700000000001
0.06579 10.1376974204057 10.9221063772815 16.256768598863 0.589210904604583 2.68715178007628 0.0657800000000002
0.0658 10.0532203510048 10.9486168124353 16.1052910354896 0.588391905225529 2.65956735570612 0.0657900000000001
0.06581 10.0778529864232 10.8668233742609 16.2060124910463 0.58354711224567 2.6885903142801 0.0658
0.06582 9.96528308917688 10.9623192641128 16.2370763741126 0.583073035750885 2.68716248224541 0.0658100000000001
0.06583 9.92982304326252 10.9606642695849 16.3274927098049 0.587442172913264 2.67887978936872 0.0658200000000001
0.06584 10.0402283729567 10.9692718100384 16.1965562439145 0.58778220760524 2.6635027860028 0.06583
0.06585 9.98094567010163 11.0825676053617 16.1744161524257 0.590059193995645 2.67155879484087 0.0658400000000001
0.06586 10.0258163311535 10.9220495204512 16.263943492716 0.593086943368425 2.66174031738872 0.0658500000000001
0.06587 10.0322782527543 11.0233550992064 16.2654639799645 0.591378774136149 2.65877821078111 0.06586
0.06588 9.99451146046769 11.0432571579931 16.1952528865805 0.590942326652619 2.66298263705409 0.0658700000000001
0.06589 10.0576101180871 10.858924094966 16.2370729320746 0.58442460262067 2.67007541107899 0.06588
0.0659 9.97190182604389 10.9877675846261 16.2526610131819 0.583950923526525 2.66700841686849 0.0658900000000001
0.06591 10.078341283881 10.9073288239581 16.1893906152249 0.584769770554276 2.68722036152141 0.0659000000000001
0.06592 10.1497260390394 10.7512119324901 16.1738312026615 0.58649634334064 2.67716073077374 0.06591
0.06593 10.0370717399826 10.8812964365883 16.2778853150615 0.592933518367535 2.6695836668888 0.0659200000000001
0.06594 10.0253568695771 10.880506469458 16.4244559430288 0.590382218198035 2.67616690584566 0.0659300000000001
0.06595 9.87017106776415 10.6530576689892 16.4520676068958 0.573507598792026 2.68259873913698 0.0659400000000001
0.06596 10.0296464604436 10.7540300963215 16.3673664495262 0.590333971254584 2.64406197771031 0.0659500000000001
0.06597 10.0795495738596 10.9800598805714 16.1934659641346 0.584708080619737 2.67253167724477 0.06596
0.06598 9.8779469045119 10.8258649225556 16.3343919772461 0.584855476860854 2.66898025761924 0.0659700000000001
0.06599 9.92706242735379 11.0627204557212 16.354385237038 0.587202907446603 2.68897302472291 0.0659800000000001
0.066 9.84206348256019 10.9500768750593 16.3458258179364 0.58273145524479 2.67707783056528 0.06599
0.06601 9.74462958953072 10.7497237130326 16.40071506234 0.576846959654718 2.67322834701636 0.0660000000000001
0.06602 9.80445792880633 10.8354709690598 16.3947510946668 0.578505421616545 2.69991700615693 0.0660100000000001
0.06603 10.2153204126648 11.1297302004367 16.1952211000884 0.605972101032103 2.66572994621993 0.0660200000000001
0.06604 9.95349195435165 11.0923740798531 16.1934719219824 0.594722782991255 2.67813588946682 0.0660300000000001
0.06605 10.1839511930523 11.1254169582043 16.1829606283603 0.602126087881974 2.68155533280581 0.06604
0.06606 10.3197451686323 11.2047906244525 16.1151867383598 0.60071041819521 2.68149959741015 0.0660500000000001
0.06607 10.2882855596709 11.0931309935317 16.2127781042499 0.601452749797288 2.68626414250507 0.0660600000000001
0.06608 10.2276584188126 11.0531033766499 16.2253124141278 0.594265900013677 2.69638848002792 0.06607
0.06609 10.176047618473 11.173164666837 16.2183281879183 0.593988473822049 2.68605331879725 0.0660800000000001
0.0661 10.0474172988962 10.8147539020382 16.3872016599848 0.590817681785799 2.67531679496388 0.0660900000000001
0.06611 10.0194513635165 10.7772230794412 16.3398736575212 0.580522682806533 2.67154049796896 0.0661000000000001
0.06612 10.0086514737325 11.0494060667486 16.3315009267065 0.58853445978482 2.68666211308926 0.0661100000000001
0.06613 10.0337037885293 10.9840176779176 16.2687457626807 0.591266300211695 2.69694348904197 0.06612
0.06614 9.86158299489182 10.7605065253481 16.3945562770848 0.577986406542646 2.69803724790564 0.0661300000000001
0.06615 9.89800851283079 10.8405623825792 16.4735904089281 0.580426824583014 2.72015021878665 0.0661400000000001
0.06616 10.1601752323023 10.9911089878133 16.3661935522751 0.597713512667853 2.69551177246433 0.06615
0.06617 10.174917736779 11.1234496212247 16.180697004438 0.593795200423764 2.69000702513954 0.0661600000000001
0.06618 10.0738601725201 10.9563114005236 16.3117272468918 0.586647533635922 2.70900117446706 0.06617
0.06619 10.0018059811183 10.9946324446732 16.369211300648 0.589556273589377 2.70527942786417 0.0661800000000001
0.0662 10.0551353799843 10.974701334043 16.3802529187811 0.586534960024706 2.6999166206854 0.0661900000000001
0.06621 9.97188125485548 10.7958298502073 16.3429963601481 0.58201182560771 2.67144422064485 0.0662
0.06622 10.112102845064 11.0231615411086 16.4004979743077 0.602954212265793 2.69065410655107 0.0662100000000001
0.06623 10.135631287952 11.2298058515934 16.235812583705 0.599528835999354 2.68560850117769 0.0662200000000001
0.06624 10.1169092839002 10.9768243432773 16.2486448177871 0.588261939070353 2.70482353200323 0.0662300000000001
0.06625 10.0841018175618 10.9766060808978 16.1752838331408 0.588794438857279 2.69710286729817 0.0662400000000001
0.06626 10.3264100633553 10.9933158756371 16.3275295008848 0.597527059141602 2.69592817137482 0.06625
0.06627 10.0819277064801 10.9961897883738 16.4460677355327 0.589976891865193 2.6995261511219 0.0662600000000001
0.06628 10.2254553253165 10.8428554110133 16.4253024103362 0.597200818928744 2.68755275970626 0.0662700000000001
0.06629 9.99412396053831 11.0808959755857 16.3866169676412 0.585862719559315 2.70485675240732 0.06628
0.0663 9.93431837473316 11.114537404076 16.2586539171807 0.587440941326207 2.69469880993959 0.0662900000000001
0.06631 9.9800796464205 10.7429169674193 16.4576877396326 0.568526010222133 2.7215747003421 0.0663000000000001
0.06632 9.87069220612774 10.868200804929 16.4383217669586 0.584969688022053 2.69156070634395 0.06631
0.06633 9.77513332691821 10.8224185828681 16.5492365837552 0.57458623265287 2.72475179877213 0.0663200000000001
0.06634 10.0943901483222 10.8245657271822 16.4725895515677 0.587268122880162 2.71105872029216 0.06633
0.06635 10.3044754154663 11.263438828052 16.1933354769497 0.605418999815639 2.67780257994496 0.0663400000000001
0.06636 10.3430565500989 11.2803419361108 16.2499743580347 0.605833511393485 2.69852877562772 0.0663500000000001
0.06637 10.1907397044827 11.0891663730859 16.3781409087366 0.597435719235794 2.70097600490918 0.06636
0.06638 10.0676163781427 11.0659092522134 16.4100020090002 0.593840885598516 2.69566300744946 0.0663700000000001
0.06639 10.2905241199329 11.0801676048007 16.2102003967626 0.598101055180706 2.69153805427194 0.0663800000000001
0.0664 10.2551079886397 11.3051946114852 16.2970269247262 0.611357449247444 2.67821050713294 0.0663900000000001
0.06641 10.3302781387701 11.2681631301456 16.1856223674222 0.599601433658735 2.69598540995209 0.0664000000000001
0.06642 10.3550965149605 11.2839294387008 16.1486389794828 0.605979894822011 2.70582147024895 0.06641
0.06643 10.1299553432457 11.2045587993116 16.3835779818933 0.601129953963394 2.71487447406892 0.0664200000000001
0.06644 10.289970234162 10.9404345630723 16.3341339699434 0.595480001317841 2.69787110847701 0.0664300000000001
0.06645 10.1377022510018 10.7951850156211 16.4253472758124 0.588293420750574 2.70221111735319 0.06644
0.06646 10.1399289005022 10.7856715576892 16.493592303764 0.592291950157303 2.69626294867073 0.0664500000000001
0.06647 9.98736239057205 10.8624226079777 16.5136962395606 0.589936381368972 2.68830594808697 0.06646
0.06648 9.87485267062618 10.7504731204423 16.6112440971869 0.583550191021476 2.7015429373644 0.06647
0.06649 9.94794110568308 10.9036311551969 16.5322017671488 0.580428950411322 2.72289606982868 0.0664800000000001
0.0665 9.92534938176912 10.9555570611624 16.5254220114318 0.59112122953268 2.71795543052501 0.06649
0.06651 9.93585911994291 11.0016013686319 16.5618737418469 0.587710305531712 2.71710763281079 0.0665000000000001
0.06652 9.91540044369352 10.9743509340174 16.558083431144 0.58556941881687 2.72600317047862 0.0665100000000001
0.06653 10.1263530798476 10.816516752634 16.4073973889076 0.585148101013363 2.69667542062104 0.06652
0.06654 10.0975696152584 11.0010668781749 16.4533346361972 0.595164337057436 2.6929140046916 0.0665300000000001
0.06655 10.1630171380775 11.1637485383268 16.3178865017884 0.601891214750098 2.70079914694566 0.06654
0.06656 10.3300715751242 11.3969508456681 16.2199041378144 0.606003613564528 2.69621484051787 0.0665500000000001
0.06657 10.4300153597294 11.2533023228854 16.1362154516532 0.606549422950637 2.69679660854585 0.0665600000000001
0.06658 10.2401912324451 11.2839005447766 16.1894233936434 0.600415747464858 2.70467610600079 0.06657
0.06659 10.3627929492341 11.3157520656965 16.2329337820111 0.613445558939705 2.68967835771889 0.0665800000000001
0.0666 10.270781480188 11.1289920583721 16.3534344161063 0.594070204011265 2.72067078948819 0.0665900000000001
0.06661 10.1552883765941 11.187052675742 16.3163625844338 0.593782958658511 2.71388896621327 0.0666
0.06662 10.2037868203618 11.203408520077 16.3804025161398 0.601669185576767 2.71289815641964 0.0666100000000001
0.06663 9.96393212845071 10.9547079876678 16.5585500031683 0.586439237982438 2.70646333056209 0.06662
0.06664 10.0751076541083 10.8864127264309 16.4406739166242 0.590310909865709 2.68675125672429 0.0666300000000001
0.06665 10.1416679506914 11.1641740359887 16.4032528323743 0.595967892450354 2.69327441398178 0.0666400000000001
0.06666 9.91926210921868 11.2314919586921 16.3982262099308 0.594297766577003 2.6874482188156 0.06665
0.06667 10.0373632001603 11.0982879181046 16.4361642236446 0.593691692380825 2.70926883123843 0.0666600000000001
0.06668 10.3015300621745 11.0662308358656 16.4898797768017 0.604066694425147 2.69692421928841 0.0666700000000001
0.06669 10.2479854506774 10.8761438920012 16.4855876321421 0.596472595413642 2.68992240620483 0.06668
0.0667 10.1981013202565 10.9875378345819 16.3584636630315 0.591768593285751 2.70532622547604 0.0666900000000001
0.06671 10.3865104282541 11.0725553243442 16.4082963572055 0.604693305036443 2.69627361955888 0.0667
0.06672 10.2058581527408 11.2086698657821 16.4578910800655 0.599355282211122 2.71696010166425 0.0667100000000001
0.06673 10.1857868656048 11.2781035309587 16.380642561367 0.601961155518231 2.70835155139523 0.0667200000000001
0.06674 10.0092326610344 11.2303741849627 16.4842192073558 0.599038500375795 2.727696862812 0.06673
0.06675 10.1334307129329 10.9561474340043 16.4560044046671 0.591410305952359 2.71080217157772 0.0667400000000001
0.06676 10.1617917722489 10.9801056937674 16.4301123786014 0.592476274588749 2.70857990545623 0.0667500000000001
0.06677 10.4382164672641 11.2717159260364 16.3464927873697 0.608260951618302 2.70156369498031 0.06676
0.06678 10.1368830481804 11.2140035788359 16.2954172052279 0.597393976036285 2.70174559693001 0.0667700000000001
0.06679 10.2872450323807 11.1993231232503 16.2731915231462 0.601042072191902 2.71062410517172 0.06678
0.0668 10.3593478523169 11.1390165151575 16.3972022874761 0.608146760338326 2.70831919553035 0.0667900000000001
0.06681 10.0802669988459 10.9354798408101 16.4419967219722 0.586117663249673 2.71217626552787 0.0668000000000001
0.06682 9.99376789178571 11.0081443941104 16.5415413114276 0.593819982360519 2.71200204769244 0.06681
0.06683 9.97313144011558 11.0457990881907 16.5657167531018 0.591577333722513 2.73093889125888 0.0668200000000001
0.06684 10.0263308643182 10.9943718139845 16.585420615542 0.589740118499615 2.71871100795772 0.0668300000000001
0.06685 10.1444747261967 10.9490637088735 16.5373024735216 0.586433434646545 2.71653776081456 0.0668400000000001
0.06686 10.0825301061766 10.9961827560725 16.5992132458218 0.598163348951731 2.72648353693651 0.0668500000000001
0.06687 10.0690457012845 10.9393904635732 16.5486734056182 0.590744109298684 2.71277260551566 0.06686
0.06688 10.3052580204508 11.0566019092589 16.5296355407738 0.600823669136303 2.71956289362109 0.0668700000000001
0.06689 10.2442659652202 11.1688750520141 16.3467343190164 0.609574914656445 2.69823289519826 0.0668800000000001
0.0669 10.1510446013347 11.2179826453903 16.3662970693945 0.604823684143996 2.70036480702779 0.06689
0.06691 10.2141330706572 11.2163201027508 16.3879998213818 0.600530375489034 2.69117554851571 0.0669000000000001
0.06692 10.2199083764755 11.5155744570037 16.3269745317737 0.60475647294947 2.71696589681458 0.0669100000000001
0.06693 10.4952210245932 11.3310526295769 16.2299134028681 0.608754427513344 2.71176636119154 0.0669200000000001
0.06694 10.423886515348 11.3627206585884 16.3187060225158 0.617622204337292 2.69937123638192 0.0669300000000001
0.06695 10.3303514035897 11.3255628814347 16.2939878563195 0.604527803477469 2.72267322486657 0.06694
0.06696 10.5231705319938 11.4640780452818 16.2423351801303 0.622191712421221 2.6926767573175 0.0669500000000001
0.06697 10.4864305562303 11.2950735359565 16.3392638412198 0.613971783415469 2.71965841313903 0.0669600000000001
0.06698 10.3727560420914 11.3948028822244 16.432265571019 0.610604706809916 2.71775298293263 0.06697
0.06699 10.0463442600599 11.1303553880616 16.4942323619107 0.601814258575043 2.70818084828504 0.0669800000000001
0.067 10.1638641292083 11.1537862035395 16.5499767775934 0.596446885508671 2.72465106950943 0.06699
0.06701 9.90936723820089 10.9088267050007 16.7224774607062 0.589083654347675 2.71719364242346 0.0670000000000001
0.06702 9.66832868990883 10.9190538661324 16.8344915195579 0.577680578560711 2.72888430048642 0.0670100000000001
0.06703 9.90041440126488 10.7553135853584 16.7479420804917 0.576913134527127 2.73791166268694 0.06702
0.06704 9.94510746990008 10.9195143750515 16.6087438810715 0.586684863602247 2.72369373543864 0.0670300000000001
0.06705 10.0181099333067 11.1200435323722 16.6131609010681 0.591076223551171 2.74848020175327 0.0670400000000001
0.06706 10.4844567325055 11.2274056884252 16.4192314662804 0.605703004836868 2.73690392560548 0.06705
0.06707 10.4787751540203 11.1862225037311 16.5002922756532 0.612982237167996 2.7235111752601 0.0670600000000001
0.06708 10.2326521240134 11.3428863310975 16.5765421110199 0.605160770252232 2.73531595663711 0.06707
0.06709 10.3096207208353 11.1553529667537 16.5014604952825 0.601388426260275 2.71710815114163 0.0670800000000001
0.0671 10.3172429031399 11.0643882550356 16.4920514429431 0.593361711771037 2.73300231000634 0.0670900000000001
0.06711 10.2633659913738 11.3504085224109 16.4740576931603 0.607035755952202 2.72010480380011 0.0671
0.06712 10.2898852253377 11.3513767700135 16.467557145278 0.605063070981506 2.7431504171939 0.0671100000000001
0.06713 10.3273279732222 11.1284417929265 16.556885048013 0.604581022877836 2.74052891071368 0.0671200000000001
0.06714 10.488963571103 11.2116187676847 16.5167744342955 0.608403771568909 2.73122415757012 0.0671300000000001
0.06715 10.4651015809045 11.4085546022808 16.4604299072544 0.614562901094511 2.72511883124071 0.0671400000000001
0.06716 10.3434733838555 11.1064858091953 16.4023585869899 0.599522010640809 2.7104705450283 0.06715
0.06717 10.3470825745733 11.3260000822887 16.3329167884335 0.608295683242883 2.71848405406288 0.0671600000000001
0.06718 10.2781981621117 11.3859959511075 16.44467402606 0.605461746841336 2.72194734437411 0.0671700000000001
0.06719 10.3130266786184 11.0609384743254 16.5549759605161 0.598396325128913 2.72400765913746 0.06718
0.0672 9.92088317348565 10.9883976569383 16.7482897927479 0.587584045763981 2.74102547090525 0.0671900000000001
0.06721 9.8890747836283 11.0591167531418 16.6338089552796 0.584616487157316 2.73155291901527 0.0672000000000001
0.06722 9.96142864187948 10.9985975428738 16.7527852896256 0.588618230121239 2.73549274376516 0.0672100000000001
0.06723 10.2129146657064 11.2571485120252 16.4934529782101 0.601272130094418 2.70563514503537 0.0672200000000001
0.06724 10.3583967756425 11.3984211104636 16.4358804827381 0.615228313051225 2.71063439983557 0.06723
0.06725 10.4312574284168 11.3909323405571 16.4770350136916 0.617908264223999 2.72696693937946 0.0672400000000001
0.06726 10.532683179347 11.1838100843418 16.4630678205031 0.609785712132823 2.71833808606197 0.0672500000000001
0.06727 10.3703728777921 11.0119794410138 16.392727586208 0.602656743820247 2.71100887743296 0.06726
0.06728 10.2433772489498 11.1988059326303 16.546541762813 0.596744758941666 2.72752267886579 0.0672700000000001
0.06729 10.3246587066576 11.33692708922 16.4474543589055 0.617831194071536 2.69729303031936 0.06728
0.0673 10.2743579735427 11.4464831621651 16.3302801990472 0.60388774595816 2.74827898900744 0.0672900000000001
0.06731 10.4609108963209 11.4940197449462 16.3996734198772 0.61621081880575 2.73505912787987 0.0673000000000001
0.06732 10.3202353567858 11.2400787721919 16.4783916554483 0.605107415321797 2.73099275470087 0.06731
0.06733 10.4150388445507 11.2389305137546 16.5580779240693 0.606033485155611 2.73950772807659 0.0673200000000001
0.06734 10.3384567128215 11.2979232147416 16.6619024838429 0.613279380397022 2.74139169940251 0.0673300000000001
0.06735 10.1483714657177 11.1600661355097 16.5254593143356 0.596577154341865 2.72079301035982 0.06734
0.06736 10.1429167345878 11.0212052117032 16.6656037810095 0.588086116907172 2.76675328877409 0.0673500000000001
0.06737 10.2666207322647 10.994071259122 16.6780982598208 0.593664154794246 2.73228649609021 0.06736
0.06738 10.1015850956296 11.0161173637709 16.7028017133838 0.590078883738557 2.73519939911 0.0673700000000001
0.06739 9.89405061470841 11.1532511985799 16.7749286069959 0.587206842788975 2.74996469027877 0.0673800000000001
0.0674 10.0119254337413 11.0736116518799 16.7118116324612 0.589549370747756 2.73244672146506 0.06739
0.06741 10.2502886949347 11.1239241896129 16.6105606761556 0.594685008410199 2.74432786336589 0.0674000000000001
0.06742 10.2592459776356 11.1919902794914 16.500881636389 0.607825463173691 2.73116949680556 0.0674100000000001
0.06743 10.3215661529761 11.1380661432851 16.4977150655018 0.602233057084114 2.72704746925579 0.0674200000000001
0.06744 10.4376608575884 11.3973886537308 16.4718886178941 0.609007963646469 2.73934691202234 0.0674300000000001
0.06745 10.5274855450068 11.3243384429959 16.5590376807803 0.608359824444067 2.73646610390172 0.06744
0.06746 10.3870021864938 11.4088115293299 16.5776714114472 0.614533951683654 2.74008868346194 0.0674500000000001
0.06747 10.4756929944146 11.3868621188762 16.4163009195223 0.617464321861016 2.7080712593442 0.0674600000000001
0.06748 10.4304426218503 11.4651761506708 16.4180872652886 0.61764593928169 2.7176566502385 0.06747
0.06749 10.3688193689835 11.3561961400209 16.4331254978649 0.607898256257359 2.72989528986927 0.0674800000000001
0.0675 10.2133927572867 11.3044037922019 16.5671840906958 0.603738822600527 2.75077459895991 0.06749
0.06751 10.3570255533742 11.140062462322 16.4949656416556 0.605663406967899 2.73136464433201 0.0675000000000001
0.06752 10.3085376366863 11.3127283774754 16.5580045137845 0.608119339748015 2.73856658694753 0.0675100000000001
0.06753 10.3805352934176 11.2836188021286 16.6624142526693 0.607952477555236 2.73372394866863 0.06752
0.06754 10.2921552158134 10.9805118587975 16.7706814012388 0.592149537895436 2.75188865875377 0.0675300000000001
0.06755 10.0184102714879 11.1015477729981 16.7686572570117 0.594066347206581 2.74286506632948 0.0675400000000001
0.06756 10.047760385607 11.2546736096647 16.6914059737601 0.599140029499906 2.73967352928651 0.06755
0.06757 10.0200446959668 11.2628430721111 16.7109275069371 0.601922404854052 2.74604768437115 0.0675600000000001
0.06758 10.215265597787 11.2443547113066 16.7414625036913 0.60275894367434 2.74039239090478 0.06757
0.06759 10.1838795971473 11.3805243044529 16.6506194921652 0.602157048247076 2.74347650039675 0.0675800000000001
0.0676 10.4460122500702 11.4461018296832 16.4786315662948 0.621742419625023 2.72928421395721 0.0675900000000001
0.06761 10.5573890447034 11.4636636131564 16.4456165204632 0.621488720472307 2.71879208598693 0.0676
0.06762 10.5194858098479 11.2208817941126 16.5194385422078 0.605054870776918 2.74248908373466 0.0676100000000001
0.06763 10.3845150001399 11.4510661499026 16.5098809127161 0.617945038346114 2.73715392587435 0.0676200000000001
0.06764 10.2287008335693 11.1526543095308 16.6900575989968 0.595813364598703 2.74210371284349 0.06763
0.06765 10.3233847790991 11.2480960819413 16.6809357170276 0.60619613553716 2.72995195836835 0.0676400000000001
0.06766 10.2841209999642 11.4109381860444 16.5005950382038 0.611078876954683 2.72668680688001 0.06765
0.06767 10.4331636325044 11.4120852919425 16.4906141724627 0.609098967488185 2.74888874138552 0.0676600000000001
0.06768 10.4437630819847 11.3865308847808 16.5199261079164 0.615309712008332 2.73550012611126 0.0676700000000001
0.06769 10.196552833459 11.1652515836498 16.7379782981926 0.604147987889862 2.73293418880438 0.06768
0.0677 10.2284535337388 11.2598262343122 16.511483187565 0.602661823346993 2.73536046447468 0.0676900000000001
0.06771 10.326086447566 11.4110208541593 16.4945624449336 0.610887688235857 2.74388195319312 0.0677000000000001
0.06772 10.0046795476666 11.2587710114054 16.6133358530974 0.590433527572302 2.74803176828966 0.0677100000000002
0.06773 10.0599113926576 11.1357069677213 16.6579411395002 0.587876721985055 2.76148940338119 0.0677200000000001
0.06774 9.91341084369762 11.1134205206794 16.8564221167921 0.593279546426227 2.74804247952927 0.06773
0.06775 10.0439136458969 11.1603649436875 16.739342755892 0.592030932784286 2.74987327528597 0.0677400000000001
0.06776 10.2054151763325 11.3338311404615 16.6322016648523 0.597505095849326 2.75692702705847 0.0677500000000001
0.06777 10.1590863676895 11.3482771480999 16.5855929966103 0.610326951245926 2.72592874019893 0.06776
0.06778 10.2761765068359 11.3502281367103 16.5943671672556 0.61029304820457 2.72403334361613 0.0677700000000001
0.06779 10.4229775746468 11.3457299464605 16.5375370164876 0.615732144179664 2.7179882119148 0.0677800000000001
0.0678 10.5321776103914 11.5391846457236 16.5316801477756 0.621127355999682 2.74913630586477 0.06779
0.06781 10.6242746881411 11.520861561351 16.3741957685053 0.626461368435412 2.72063960065111 0.0678000000000001
0.06782 10.5827750304769 11.5671438685056 16.4178100505857 0.627926217793536 2.71710818090954 0.06781
0.06783 10.6105164405844 11.6348120205574 16.4593293545059 0.614678668829461 2.74537009546118 0.0678200000000001
0.06784 10.5274056056308 11.5397703345916 16.4676656144228 0.620358722673912 2.73069755360016 0.0678300000000001
0.06785 10.5113453103027 11.5165091861774 16.4623187772334 0.617505399196074 2.73367058841129 0.06784
0.06786 10.4275801206752 11.4485240204054 16.5970853335954 0.608684787273004 2.75218241469752 0.0678500000000001
0.06787 10.4654039394448 11.3749377049494 16.5860308312843 0.61726060500398 2.73110139461612 0.0678600000000001
0.06788 10.4238831014068 11.4441876136846 16.4940875959538 0.609953789079949 2.72531570991289 0.0678700000000001
0.06789 10.2585747484027 11.3910149990845 16.5083579137867 0.608321816146919 2.72997268053188 0.0678800000000001
0.0679 10.2149479280175 11.393515103855 16.5287465080718 0.61457103613496 2.71958864072659 0.06789
0.06791 10.0297452828149 11.3683844635674 16.6882512873584 0.598582181226296 2.7466118724287 0.0679000000000001
0.06792 10.042952241859 11.2921920062967 16.902056398811 0.600581770984539 2.76332956338084 0.0679100000000001
0.06793 10.1992876999151 11.3245184512595 16.7424189389493 0.605782547427242 2.75582874001433 0.06792
0.06794 9.99292783732059 11.1445384636092 16.8570138458 0.592069626978698 2.76183683130505 0.0679300000000001
0.06795 10.0858696698159 11.1591779219616 16.8079045544784 0.593707944509449 2.74120927085061 0.0679400000000001
0.06796 10.4348021276121 11.6061717233976 16.4982504738977 0.623399201665708 2.73444171890186 0.0679500000000001
0.06797 10.607342596796 11.7313449021612 16.4658482724482 0.617783813470984 2.76684615421615 0.0679600000000001
0.06798 10.5218384995866 11.6996629122231 16.4687692874906 0.627128924968355 2.7317914265803 0.06797
0.06799 10.4057596626191 11.5022952297047 16.5288426047361 0.61753260429823 2.7600740142138 0.0679800000000001
0.068 10.3038261416076 11.3956068232839 16.4940917800034 0.604929113947708 2.74411835728745 0.0679900000000001
0.06801 10.2368900159318 11.349493022652 16.7128492757168 0.608245403575432 2.75198271724193 0.0680000000000002
0.06802 10.2132384262489 11.3477483905772 16.6648099400924 0.60402653006769 2.76424883068648 0.0680100000000001
0.06803 10.3682196304525 11.3756003584677 16.6619490999212 0.595641822765193 2.77596376107283 0.0680200000000001
0.06804 10.1567167605856 11.546626097248 16.5993118897204 0.615879590180196 2.72991937474469 0.0680300000000001
0.06805 10.3557015890737 11.5799363199932 16.5684133254883 0.617263373115034 2.74514377347218 0.0680400000000001
0.06806 10.4759945278112 11.532033217547 16.5045548537294 0.616907635867013 2.74844936025021 0.06805
0.06807 10.5588146176937 11.6131499309644 16.5621592706703 0.620497144616074 2.76209238273899 0.0680600000000001
0.06808 10.3300426475376 11.4053075801464 16.5645021404118 0.612596994368434 2.74459112534459 0.0680700000000001
0.06809 10.4743847119047 11.5557439096015 16.5132867023722 0.625435655922083 2.75475620187194 0.06808
0.0681 10.4436691318974 11.6897514993678 16.6063105599209 0.623954388732706 2.77081186104767 0.0680900000000001
0.06811 10.3379134672199 11.3762602989148 16.6345174988983 0.610876740181935 2.73580492645124 0.0681
0.06812 10.3766399852315 11.4691994774579 16.6578213837961 0.606943649318084 2.76394181923443 0.0681100000000001
0.06813 10.1706443978571 11.4730788627948 16.7293130366203 0.612926654634893 2.77461199929089 0.0681200000000001
0.06814 10.3919250974879 11.2195872942676 16.7624207496722 0.603533054601422 2.75873442417144 0.06813
0.06815 10.4292457527472 11.4762466883138 16.7072188870041 0.614237641585643 2.75201340830472 0.0681400000000001
0.06816 10.5157470666581 11.4972626554183 16.5842903654905 0.61895653612688 2.7480675751563 0.0681500000000001
0.06817 10.3307150876138 11.5264128653451 16.6065951299639 0.616336491546268 2.75538287273221 0.0681600000000002
0.06818 10.6112915952747 11.6369356823534 16.5377488704689 0.620865977301167 2.77207985139606 0.0681700000000001
0.06819 10.5426470324755 11.5139154729426 16.5938412622719 0.619586921326551 2.75589721455831 0.06818
0.0682 10.2637563480459 11.5430591672233 16.7134048182456 0.612818504058756 2.76440007906212 0.0681900000000001
0.06821 9.99166040274161 11.3486957962249 16.8435074485543 0.600930481432648 2.76112143271086 0.0682000000000001
0.06822 10.0485276733839 11.4079800129188 16.8097870277837 0.598131338124693 2.78177658310905 0.06821
0.06823 10.2495146122004 11.4376522531784 16.8104578247387 0.609994910886595 2.76018275202428 0.0682200000000001
0.06824 10.2671092872368 11.3969927976998 16.6546054109751 0.606464219754632 2.73715033259619 0.0682300000000001
0.06825 10.2928314586101 11.4200667841132 16.6657649410128 0.608251733587697 2.76765949844207 0.06824
0.06826 10.3214608227414 11.1725551745924 16.7605681592197 0.60160251306046 2.76660058570165 0.0682500000000001
0.06827 10.3789516635918 11.4491582502367 16.6446929788933 0.615868386244156 2.74161148586691 0.06826
0.06828 10.2776099332622 11.3889336075048 16.6795687326295 0.600304416644686 2.76825626880376 0.0682700000000001
0.06829 10.5134982895221 11.461734820004 16.6778796657595 0.612955709549469 2.75788892117093 0.0682800000000001
0.0683 10.340717006492 11.6976404676646 16.7223918999853 0.619870326680071 2.74927793979637 0.06829
0.06831 10.4573063515685 11.6027949901373 16.7299360092332 0.613412500205499 2.77472490097665 0.0683000000000001
0.06832 10.3515937020738 11.5246609284959 16.6244757727112 0.613409702908304 2.76091068004343 0.0683100000000001
0.06833 10.5087729167349 11.3511142907131 16.7275832215731 0.614002614906702 2.75128563815617 0.0683200000000001
0.06834 10.433210149958 11.7395574772286 16.5123951218161 0.621353626429455 2.75953539311383 0.0683300000000001
0.06835 10.4009703201511 11.6546344568137 16.5819195990717 0.615116544733315 2.76551126622133 0.06834
0.06836 10.3577526126178 11.7386316143476 16.5514829072591 0.614512287412918 2.76697426544647 0.0683500000000001
0.06837 10.4569219476844 11.6168628893229 16.6896726640781 0.621121891371931 2.74146360314427 0.0683600000000001
0.06838 10.4839798229822 11.4120500686985 16.6316571011717 0.607022780395518 2.77342147257289 0.06837
0.06839 10.2693263376765 11.517152729713 16.6542329523134 0.605865567609193 2.76152041632613 0.0683800000000001
0.0684 10.3775673376303 11.3721749469608 16.6747540255021 0.608657472608958 2.76479775241352 0.06839
0.06841 10.4213200166991 11.6742649771075 16.7048000133055 0.621332432473725 2.78477208376578 0.0684000000000001
0.06842 10.3469523850312 11.5951268653958 16.6095158292067 0.616150996829738 2.75883781251715 0.0684100000000001
0.06843 10.392491800944 11.4353918834297 16.8002659761538 0.609628815479451 2.78499419101997 0.06842
0.06844 10.4442837000952 11.4170108438382 16.8287450280238 0.611061402906026 2.76427369946081 0.0684300000000001
0.06845 10.309686203297 11.399436685556 16.7422086051518 0.613316449945113 2.75890323642518 0.0684400000000001
0.06846 10.452648177299 11.5563653756167 16.6942538039784 0.613683419538806 2.77364551364153 0.06845
0.06847 10.5979764023629 11.5965215181568 16.5965717210646 0.626876872043981 2.75168290420524 0.0684600000000001
0.06848 10.5113474327335 11.4468081334961 16.5781121123527 0.61458271167369 2.74703922068161 0.06847
0.06849 10.2902730802407 11.5118800344511 16.6828851727986 0.609984500505121 2.76489866040622 0.0684800000000001
0.0685 10.3696280927821 11.363314275373 16.8042715286835 0.613497044497338 2.77663649493963 0.0684900000000001
0.06851 10.3182882811715 11.5161247675662 16.72930192814 0.613813616796294 2.76716638349133 0.0685
0.06852 10.2760815511989 11.5374619443668 16.6323180755537 0.615353267311195 2.76226211564657 0.0685100000000001
0.06853 10.4388030861512 11.5046045034561 16.6399057404131 0.616497741539687 2.75538708688665 0.0685200000000001
0.06854 10.3997908211418 11.5898328085223 16.6787277797205 0.615976571622298 2.76416361440633 0.06853
0.06855 10.643020622846 11.6582030347387 16.6420736688081 0.618075290171554 2.78212596972124 0.0685400000000001
0.06856 10.5196548403271 11.4354270078553 16.6614315995907 0.610372912748208 2.77785495212865 0.06855
0.06857 10.2488137913717 11.541608604904 16.7614332057408 0.608252284490442 2.76450938938349 0.0685600000000001
0.06858 10.3404304028048 11.4729697412996 16.6674371158111 0.605435278496988 2.76765728415995 0.0685700000000001
0.06859 10.3352389065802 11.2177434462325 16.7902884082185 0.598174296147017 2.7795309758013 0.06858
0.0686 10.5713698661568 11.7442827479578 16.5330918060132 0.626322480151206 2.75613426519785 0.0685900000000001
0.06861 10.4844304095661 11.5026072874154 16.7104703306158 0.611223514113412 2.77647775252733 0.0686000000000001
0.06862 10.5730714677887 11.5172512688316 16.745259343989 0.61583767472815 2.77787883628021 0.0686100000000001
0.06863 10.7248289582896 11.5781475191486 16.6557209500439 0.629616816516209 2.75253077544986 0.0686200000000001
0.06864 10.4890872986654 11.8780949871592 16.6947194242359 0.625082521362909 2.78588753661721 0.06863
0.06865 10.6008970409558 11.8263181199851 16.7588931921853 0.631652660498899 2.77986325919423 0.0686400000000001
0.06866 10.4708175315165 11.4738351494583 16.6831840308434 0.61469592385803 2.77064920326577 0.0686500000000001
0.06867 10.5465176715322 11.6112199903311 16.6450314942727 0.62509380315767 2.76925483414308 0.06866
0.06868 10.5980174758753 11.3994424810562 16.7380660950146 0.613597023224852 2.77225366615246 0.0686700000000001
0.06869 10.4935401409727 11.5558222757257 16.7581466813776 0.623394096892996 2.76316419621782 0.0686800000000001
0.0687 10.4686666319151 11.5657056792038 16.8285154443791 0.615439945445812 2.77468291999751 0.06869
0.06871 10.3627262183968 11.6215080273232 16.8490441968918 0.620924500787944 2.78564645776367 0.0687000000000001
0.06872 10.5441433862755 11.6074847686173 16.7361450099354 0.625088814450802 2.76605926206566 0.06871
0.06873 10.4651580296093 11.5001144453259 16.7173647839385 0.613330868113124 2.76735773589785 0.0687200000000001
0.06874 10.5242905486177 11.5446952264981 16.8433766409062 0.618842551813753 2.77558799571642 0.0687300000000001
0.06875 10.3171876772459 11.4662105405536 16.7992700658663 0.610901327420094 2.76462596569598 0.06874
0.06876 10.2220230050058 11.5105905819877 16.8716843803031 0.611438102068761 2.7782115659298 0.0687500000000001
0.06877 10.3182941586368 11.479954639986 16.86291299073 0.600943410987941 2.79482437643973 0.0687600000000001
0.06878 10.4833290174242 11.7203267295137 16.8184866302717 0.622595183778134 2.78023190423094 0.0687700000000001
0.06879 10.4809826406898 11.7241205328672 16.7012521090183 0.621626164226229 2.76475575109396 0.0687800000000001
0.0688 10.445784628443 11.7285424520738 16.7080436456314 0.624447033558872 2.76475204459909 0.06879
0.06881 10.7099837245841 11.6085696071406 16.724562120536 0.620736173702902 2.79361863435991 0.0688000000000001
0.06882 10.3870468808869 11.5661282521358 16.7020671969249 0.616092744694654 2.77478943260194 0.0688100000000001
0.06883 10.502604932488 11.552028765934 16.7836777985177 0.617693472048279 2.78128183372315 0.06882
0.06884 10.4688515791756 11.6766754309779 16.7682230724727 0.622342799574959 2.78191326241713 0.0688300000000001
0.06885 10.5799880764145 11.5916077972669 16.8646341459455 0.62721126362983 2.78478728578701 0.0688400000000001
0.06886 10.3887372736014 11.4071971797421 16.8436320985844 0.614982448083358 2.76559212965097 0.0688500000000001
0.06887 10.3716082704354 11.4809733133112 16.9694778076645 0.613833697652507 2.78792540518655 0.0688600000000001
0.06888 10.5409465174325 11.4525575385018 16.8506018932436 0.614068481183077 2.78359746010421 0.06887
0.06889 10.4566186766383 11.6591923175925 16.7560173355831 0.622571431515333 2.77244733792668 0.0688800000000001
0.0689 10.5046301467379 11.3925668489709 16.837478664788 0.610703868162155 2.77432266282388 0.0688900000000001
0.06891 10.4039527927696 11.6518800127304 16.7974680981844 0.626258341373051 2.76801785865441 0.0689
0.06892 10.287650319515 11.385870646625 16.9398065475611 0.600754336220269 2.80239990330423 0.0689100000000001
0.06893 10.5967020732267 11.6236796033134 16.7408051152242 0.618084167720127 2.79027256049216 0.06892
0.06894 10.839008983673 11.7980881347707 16.60094355162 0.637098346701111 2.77891754383635 0.0689300000000001
0.06895 10.6600456606851 11.6755236577924 16.7669711918531 0.625207155146452 2.78304348374848 0.0689400000000001
0.06896 10.7584522762842 11.566951905924 16.7920445982784 0.63124847761662 2.77733512635094 0.06895
0.06897 10.6649437784168 11.7249038073544 16.7529177173566 0.629012847938106 2.77957334542366 0.0689600000000001
0.06898 10.7559500706096 11.5935376950697 16.75633690331 0.623179916984567 2.78130146816427 0.0689700000000001
0.06899 10.7552067024141 11.7456257586332 16.7157963223237 0.631381472261102 2.77967789101944 0.06898
0.069 10.6962939819104 11.771708577075 16.6815911954616 0.632294195455843 2.77243615032074 0.0689900000000001
0.06901 10.4966148611082 11.6803797661778 16.7071764482399 0.621921500513321 2.76750561024314 0.069
0.06902 10.4980369746781 11.6366470636127 16.9410754218327 0.624439462756882 2.80152499672782 0.0690100000000001
0.06903 10.1309348707425 11.4204423910856 17.071802332462 0.602279064602924 2.79976298266117 0.0690200000000001
0.06904 10.0788099602707 11.3798205598009 16.9986852060797 0.601355905170812 2.78976990856623 0.06903
0.06905 10.4366313234969 11.5733031407568 16.8077435815725 0.618220420250215 2.7720504287652 0.0690400000000001
0.06906 10.3318357788775 11.6092519539858 16.7983819179953 0.616114283935027 2.77698044216776 0.0690500000000001
0.06907 10.6378779211889 11.6264205327102 16.8789032732138 0.6227959139565 2.81332476101321 0.0690600000000001
0.06908 10.434955596849 11.6374547592199 16.9293218230735 0.622060309546131 2.7896026262035 0.0690700000000001
0.06909 10.6397122451195 11.4921784734319 16.7980578830334 0.625260145652043 2.76882218018431 0.06908
0.0691 10.8042468280494 11.6057453059751 16.8171883906628 0.629223327292891 2.7988852944851 0.0690900000000001
0.06911 10.4400067076453 11.5328611755856 16.984410165922 0.614179847898694 2.8111410417475 0.0691000000000001
0.06912 10.5926692093806 11.6787435676056 16.7903493102683 0.624528984338627 2.78900017307605 0.06911
0.06913 10.5119144077815 11.6165921097217 16.8037435440623 0.616329691358003 2.79790196478341 0.0691200000000001
0.06914 10.8305334457864 11.649855008153 16.6899156926699 0.636423599366288 2.76271904867583 0.0691300000000001
0.06915 10.8296090755882 11.8712920628752 16.6922341651988 0.630940681631052 2.78976488744545 0.0691400000000001
0.06916 10.8346478635124 11.7696754827759 16.7030950211266 0.636816116242764 2.77985311703696 0.0691500000000001
0.06917 10.6449654722851 11.8036625013237 16.8378409273091 0.633729314604632 2.78856750290913 0.06916
0.06918 10.4662573408065 11.8479501925402 16.8878051166638 0.626169589272775 2.79761559916727 0.0691700000000001
0.06919 10.4597680827824 11.5871334818836 16.964943084409 0.622253531527781 2.7697474896728 0.0691800000000001
0.0692 10.4708577740573 11.6059351969509 16.8907402798486 0.619429967079468 2.79289267936484 0.06919
0.06921 10.519263778893 11.7359349538075 16.8154111704077 0.621066704634358 2.78891093305438 0.0692000000000001
0.06922 10.3772663203947 11.8129818909273 16.9203778614899 0.62138122765386 2.79692950253017 0.06921
0.06923 10.5702280919984 11.7096644611606 16.9260507021534 0.620912748664876 2.79361098635151 0.0692200000000001
0.06924 10.3622368431307 11.6596403374067 16.9723889285931 0.616110381773367 2.8099733589732 0.0692300000000001
0.06925 10.5780266343448 11.6273671336874 16.9495382015369 0.625950068916375 2.80284218132977 0.06924
0.06926 10.5518030774465 11.4878966878209 16.88767712965 0.617420661181208 2.79768726143526 0.0692500000000001
0.06927 10.5602507399427 11.6405492375358 17.0186088228172 0.62538193505161 2.81257121882268 0.0692600000000001
0.06928 10.6920463269024 11.7678828069882 16.736507598781 0.635167265274183 2.7707911074429 0.06927
0.06929 10.9106531536647 11.9178617874433 16.6569815389242 0.640491965974185 2.78868844540121 0.0692800000000001
0.0693 10.623587643939 11.876440049846 16.7850080822483 0.630500030598896 2.78494507028228 0.06929
0.06931 10.6016615200419 11.8224595235358 16.795911145879 0.631999024879637 2.795263836376 0.0693000000000001
0.06932 10.5186408462479 11.7037234869665 16.8186690311739 0.624663924120105 2.79931403684752 0.0693100000000001
0.06933 10.6115172894132 11.8746723109358 16.6877795405101 0.632375140353497 2.79248694619809 0.06932
0.06934 10.756638331158 11.79542963646 16.8248255547578 0.634071245168123 2.78689117474662 0.0693300000000001
0.06935 10.7884021771097 11.817005019566 16.7431871029528 0.636469413444851 2.78726443504822 0.0693400000000001
0.06936 10.5987106484663 11.7698632296741 16.7772580065919 0.628962057606197 2.79909398503854 0.0693500000000001
0.06937 10.5810739259289 11.7047990262054 16.8978593661888 0.62444678465361 2.79221083763244 0.0693600000000001
0.06938 10.4240663299337 11.5792589959755 16.9267645312616 0.618547800025676 2.80319324848832 0.06937
0.06939 10.4227631285007 11.5507782300228 16.8331894434622 0.617864539449585 2.77718477938091 0.0693800000000001
0.0694 10.3218009645754 11.4180485201779 16.9308939552807 0.601741737873029 2.81509145138786 0.0693900000000001
0.06941 10.6122160601872 11.6112406049593 16.8510296510554 0.628512341121444 2.79705609967732 0.0694
0.06942 10.5592027666346 11.628536708905 16.8120000462903 0.618069408508655 2.78555913414736 0.0694100000000001
0.06943 10.4616627532019 11.4367413925807 16.9555942233915 0.611019766269873 2.80744291367089 0.0694200000000001
0.06944 10.6569820324659 11.7070971339103 16.8429725046965 0.631471902766359 2.78347405622238 0.0694300000000001
0.06945 10.5408395458533 11.725372768003 16.841141384413 0.621312442395479 2.81234836648413 0.0694400000000001
0.06946 10.6056878682154 11.6343864351927 16.852479092661 0.620296973844517 2.80413814055189 0.06945
0.06947 10.5734072107719 11.569034976781 16.8729245949646 0.623704688110731 2.79778691934602 0.0694600000000001
0.06948 10.6394755957385 11.8620517876037 16.9293970404869 0.63200053421481 2.81673618721715 0.0694700000000001
0.06949 10.6208635684103 11.9325663410799 16.8363752231658 0.634168738395476 2.80322211734866 0.06948
0.0695 10.5520546080078 11.987864484719 16.7977155831058 0.636270352541273 2.81240634120072 0.0694900000000001
0.06951 10.6579070496331 12.0557363714849 16.7673241604489 0.640861908545551 2.79442240503295 0.0695
0.06952 10.7675258671027 11.68688579414 16.9320281563052 0.631581558824305 2.79745407748798 0.0695100000000001
0.06953 10.5858095657134 11.7935740548856 16.8843757770194 0.624703890721355 2.80352654178044 0.0695200000000001
0.06954 10.723692076559 11.7965169684046 16.8367014677812 0.635680728679572 2.78943877718953 0.06953
0.06955 10.7964620207532 11.9460710752853 16.8913467109057 0.63358156435037 2.81095328269824 0.0695400000000001
0.06956 10.6877154568589 11.9249996720817 16.8059352845783 0.638319872761474 2.79145124045058 0.0695500000000001
0.06957 10.754585316112 11.9463754348455 16.8281597418225 0.638547622154849 2.79166778679448 0.06956
0.06958 10.5576203989697 11.8365154195938 16.862245763634 0.627479569432305 2.80214041763023 0.0695700000000001
0.06959 10.7129008340755 11.7081811953304 16.8682227280784 0.634353354800379 2.79384823698727 0.06958
0.0696 10.5673746599157 11.7245277874289 16.9350548621407 0.628474110606464 2.80271785039229 0.0695900000000001
0.06961 10.7214017493522 11.6509542478652 16.9489142290688 0.628878282968122 2.816051358189 0.0696000000000001
0.06962 10.5563942745261 11.7283254834817 17.0480698316694 0.621388253027374 2.8392643833752 0.06961
0.06963 10.4201623442024 11.3229253212514 17.100809488139 0.601872711379885 2.81626338151895 0.0696200000000001
0.06964 10.261320766287 11.5091292408881 17.1304799735206 0.6130453459263 2.80523898755833 0.0696300000000001
0.06965 10.4408051324984 11.5134168395389 17.07348297676 0.61468834928784 2.81322558051425 0.0696400000000001
0.06966 10.6180569318185 11.5924100847614 16.9829218613019 0.62500296644848 2.80040282790388 0.0696500000000001
0.06967 10.4845350473925 11.6369485766358 16.9147907516872 0.621975868267327 2.78425563751979 0.06966
0.06968 10.7322733693136 11.8068065653715 16.8144610713245 0.634243465002566 2.79173290048872 0.0696700000000001
0.06969 10.8136513923822 11.7096869051537 16.795126348964 0.630747004039527 2.79203751688812 0.0696800000000001
0.0697 10.7964188279895 11.7756008772296 16.8178506222101 0.631601008220106 2.80608125351854 0.06969
0.06971 10.8264941655393 11.9446218115274 16.7757208890065 0.635562838377489 2.80286843822086 0.0697000000000001
0.06972 10.88588697233 11.9196495291282 16.7831451694177 0.641244194844436 2.81352526506433 0.0697100000000001
0.06973 10.6535693015118 11.8590266431041 16.9274526872799 0.631038688266722 2.82355172379424 0.0697200000000001
0.06974 10.7219659687391 11.9032802824677 16.8273575844892 0.63229628251307 2.82426121524538 0.0697300000000001
0.06975 10.887476182784 11.6746675168816 16.8540724988636 0.635482421923826 2.80139915450221 0.06974
0.06976 10.6434246638421 11.5768570199764 17.0376312609089 0.628737025649132 2.80961360263779 0.0697500000000001
0.06977 10.5203554423596 11.719304361659 17.0395257704893 0.627044881669023 2.81194845955821 0.0697600000000001
0.06978 10.7017159123739 11.8508695472158 17.0424157245049 0.635204840134398 2.8174524991226 0.06977
0.06979 10.5218153239252 11.7601308644023 16.9921816208754 0.616840754589712 2.82660683100918 0.0697800000000001
0.0698 10.5366941560847 11.8439321407705 17.0638301161585 0.632383925410823 2.80591204258444 0.0697900000000001
0.06981 10.729438847643 11.6709475824434 16.9745756183466 0.631972438984073 2.80023107586154 0.0698000000000001
0.06982 10.7078555025275 11.678783252563 16.9594282887817 0.626705384505393 2.80496882035282 0.0698100000000001
0.06983 10.7089994491467 11.8621253369627 16.9427648986553 0.631079817712881 2.80414801770707 0.06982
0.06984 10.8086524232821 11.8825075310926 16.9224693910638 0.633670570780316 2.80492205360253 0.0698300000000001
0.06985 10.711310028944 12.0177065572763 16.8554075728723 0.638597091944737 2.82889683175706 0.0698400000000001
0.06986 10.7410955459859 11.9266834691993 16.9375828907581 0.637753225020435 2.79952606215071 0.06985
0.06987 10.8679762791864 11.9395669892061 16.8617303046479 0.632812140031842 2.81397219723781 0.0698600000000001
0.06988 10.8641934231268 12.0133480509939 16.8564781980761 0.642390516266851 2.81961084686293 0.0698700000000001
0.06989 10.8429387285307 11.9551173451032 16.9196741082496 0.64122230834131 2.81638825241963 0.0698800000000001
0.0699 10.8168384860114 11.8616904816204 17.1187080324799 0.638614859178353 2.83726172106584 0.0698900000000001
0.06991 10.7287889029369 11.7450735831295 17.0535507627418 0.630098722808669 2.82955932692696 0.0699
0.06992 10.7702645227001 11.7346697663365 16.9435040695659 0.633830656784244 2.80110816409505 0.0699100000000001
0.06993 10.5938101956536 11.628787788411 17.0812666439509 0.622079734917895 2.80265177619521 0.0699200000000001
0.06994 10.2521855541005 11.4778117580831 17.212147407403 0.604432246829042 2.81926462804747 0.0699300000000002
0.06995 10.602548171405 11.6780221338225 17.076493833624 0.630326853126204 2.80680164523929 0.0699400000000001
0.06996 10.569217538596 11.7844321129024 16.958234738881 0.628095930328857 2.8075154425892 0.0699500000000001
0.06997 10.562454438827 11.7150293359454 16.9694545236472 0.618634302065919 2.82803111109863 0.0699600000000001
0.06998 10.7209199928375 11.8208179917289 17.0263868488628 0.634504475755891 2.82109513930333 0.0699700000000001
0.06999 10.8659027146317 11.8225187582859 16.9360675124935 0.640743664492046 2.80812265458393 0.06998
0.07 10.7796952401708 11.7069668597377 17.0551973038539 0.629035667887272 2.83803155800323 0.0699900000000001
0.07001 10.7277262037784 11.7534671571952 17.015083783971 0.631107963872379 2.81766617645728 0.0700000000000001
0.07002 10.9228705347553 12.0278695494996 16.9169917970731 0.639100821846384 2.81971008691342 0.07001
0.07003 10.6895788098517 11.9285076382576 16.9648942300369 0.636031575249825 2.8212291797774 0.0700200000000001
0.07004 10.8519161946753 12.093719769018 16.7423267137649 0.642984219720742 2.80959329887088 0.0700300000000001
0.07005 10.9825966051813 12.0307079433481 16.8348822648789 0.641741145774439 2.83449225645906 0.0700400000000001
0.07006 10.9360528360203 11.9233620201583 16.8940257641704 0.635937561030945 2.8304818942175 0.0700500000000001
0.07007 10.8295954235987 11.8843088371427 16.9486288934161 0.639138301197385 2.80406373299101 0.07006
0.07008 10.955234539838 12.2468315313896 16.8894297699928 0.653353631188085 2.80480931278632 0.0700700000000001
0.07009 10.7131344423416 12.0712992551213 16.8821450124387 0.64132805503691 2.81666080763454 0.0700800000000001
0.0701 10.4504929480355 12.0393971196519 17.0538009958311 0.628205039324114 2.84010067726503 0.0700900000000002
0.07011 10.6331127703754 11.9388065833433 16.9802829049986 0.637738684983808 2.82477677294759 0.0701000000000001
0.07012 10.5676971964215 11.8223799074084 17.0130296857075 0.621485439379746 2.82856656211868 0.07011
0.07013 10.5786904025667 11.480711995648 17.2486497215705 0.612850636884749 2.84801478185822 0.0701200000000001
0.07014 10.5138055004868 11.5626463192955 17.2231942592356 0.620269463980351 2.8194829988576 0.0701300000000001
0.07015 10.6724764726531 11.658236257312 17.167367438351 0.627389604872653 2.83608672786796 0.07014
0.07016 10.6711001049044 11.7658080058746 16.9781733108216 0.629812026684339 2.82060301522697 0.0701500000000001
0.07017 10.574512854934 11.6306590238493 17.1751559357713 0.6147130897553 2.84872175365928 0.0701600000000001
0.07018 10.6496726775601 11.7616639158032 17.0730514044179 0.627020506396107 2.83126382833316 0.07017
0.07019 10.8199708938938 11.9779693796373 16.9776971769081 0.63823900126498 2.83460558375785 0.0701800000000001
0.0702 10.7904220319062 11.7451269803287 17.1696831577745 0.628647565214389 2.84644231767048 0.07019
0.07021 10.8405907705043 11.686475072481 17.1188900569343 0.639198038765619 2.81333641694788 0.0702000000000001
0.07022 10.8702781264628 12.0167609320613 16.8822650585091 0.646245258619078 2.81400050278225 0.0702100000000001
0.07023 10.8583848134341 11.8996326773312 16.9551025675917 0.641912719321031 2.83679217808566 0.07022
0.07024 10.9876649256715 11.879751042641 16.9910474416983 0.642347272828664 2.83364287906889 0.0702300000000001
0.07025 11.024100398859 11.9962240284891 16.9720768245644 0.645005144049325 2.81432586073017 0.0702400000000001
0.07026 10.7920129968204 11.8357282259664 16.9526300615628 0.635986033966617 2.79765777392264 0.0702500000000001
0.07027 10.7859640879609 11.8619786775215 16.9684572331845 0.638738177600776 2.80944294252668 0.0702600000000001
0.07028 10.619565536213 11.912558535561 17.0969600595769 0.630923307464135 2.84284663845606 0.07027
0.07029 10.7255896451089 11.7547730401036 17.0596111066861 0.630066818406008 2.8293037552697 0.0702800000000001
0.0703 10.7257819449236 12.0197048919276 17.1356522925176 0.638956892162584 2.84104361236974 0.0702900000000001
0.07031 10.715401664128 11.827420238792 17.0624826365062 0.626352933773462 2.82697790513789 0.0703
0.07032 10.670911040593 11.7697597739293 17.1609980953553 0.636108028796035 2.81102795667928 0.0703100000000001
0.07033 10.7239923068708 11.7940462612842 17.106116207501 0.622374851172317 2.84492008594683 0.07032
0.07034 10.8274619482585 11.8839273387113 17.0065216665216 0.64049484456657 2.812989754492 0.0703300000000001
0.07035 10.6236941222267 11.8126122145806 17.1797270826128 0.629781696041299 2.82337795576967 0.0703400000000001
0.07036 10.7736359340031 11.8735338317191 17.0301545123402 0.634134796117249 2.82250820146225 0.07035
0.07037 10.7683690890746 12.0514747803391 16.9949446967123 0.641010361686548 2.8216470875693 0.0703600000000001
0.07038 10.7501672240497 11.9670857946059 16.9677794758338 0.631429222935694 2.83546811921463 0.0703700000000001
0.07039 10.8834725176126 12.0986716397771 16.9672942268401 0.645126708855626 2.82617282410338 0.07038
0.0704 10.8833641396773 12.0904274308571 17.0193769212904 0.639829653317696 2.83918204680373 0.0703900000000001
0.07041 10.6593214925416 11.9323883302037 17.1123231532444 0.626883654693674 2.83828820013939 0.0704
0.07042 10.7586322692911 11.9433967803143 17.0650569842194 0.6321495916417 2.84986929419948 0.0704100000000001
0.07043 10.7858233641955 12.0898656562859 17.0168905646785 0.644557054742737 2.82318183374346 0.0704200000000001
0.07044 10.9689190046776 11.8650499891195 17.1634486376565 0.643235982135801 2.84090290562387 0.07043
0.07045 10.8357546266335 11.8842382473707 17.0525241781347 0.640862726484499 2.82513346873969 0.0704400000000001
0.07046 10.9238227642975 12.0568694866909 16.9927285878401 0.650769112579951 2.81380367345488 0.0704500000000001
0.07047 10.6508349155304 11.7892283560845 17.1283330857789 0.630160531882992 2.83339682995157 0.07046
0.07048 10.8432048870134 11.715476089824 17.0415350232417 0.628657201219654 2.84301105831337 0.0704700000000001
0.07049 10.9703512579844 11.9340824585808 17.0118547382288 0.645445258463746 2.84247489679901 0.07048
0.0705 10.6420147845737 11.7659431127961 17.0701691009886 0.623628614205384 2.83724641534914 0.0704900000000001
0.07051 10.3906860366252 11.6454125812745 17.3918882266895 0.619109925237577 2.85387751803771 0.0705000000000001
0.07052 10.5525349847603 11.725605016503 17.3089337819023 0.635895013577002 2.83964171576564 0.07051
0.07053 10.4719389591635 11.8464501523327 17.1905054742997 0.628109115934146 2.84652029825322 0.0705200000000001
0.07054 10.6030750621866 11.9636272889291 17.0600462128393 0.632871236395585 2.84883541440356 0.0705300000000001
0.07055 10.6732202106372 11.7959652016118 17.1926132710221 0.627215599373368 2.85465780696283 0.0705400000000001
0.07056 10.823738013745 12.1145862430672 17.0728912864908 0.650976957941281 2.8097813880522 0.0705500000000001
0.07057 11.023607790229 12.05736276524 16.9228909850239 0.642459488939992 2.83496872547856 0.07056
0.07058 11.0974073651994 12.0644600024001 16.9331013450182 0.645346147807335 2.82624186207339 0.0705700000000001
0.07059 11.0676479490394 12.194789751126 16.8970231376333 0.660904650893147 2.8161939610546 0.0705800000000001
0.0706 10.8658572108392 12.2272824009833 16.9724820984956 0.64734879414804 2.848326889543 0.07059
0.07061 10.8107387204824 12.1942322905144 16.8245566265398 0.640508205914298 2.85255940335555 0.0706000000000001
0.07062 10.910541080213 12.1063037209823 16.9648927951925 0.650905756510721 2.82976339555678 0.0706100000000001
0.07063 10.9088180206284 12.1522507585887 17.1343169983968 0.644191138620576 2.8467630390473 0.0706200000000001
0.07064 10.9163954797541 12.0130977419064 17.166931113437 0.643805367876954 2.85650720572873 0.0706300000000001
0.07065 10.7133484228781 12.0498653428473 17.0653663324593 0.644081091453058 2.82785425376891 0.07064
0.07066 10.6471421653389 11.9742849197339 17.1160071926315 0.629295059805709 2.86457786473371 0.0706500000000001
0.07067 10.834143609813 11.8244307666386 17.1703344430544 0.629931517997246 2.8647637084869 0.0706600000000001
0.07068 10.9964350684021 11.7837052862918 17.2076107818407 0.638671043048131 2.85269020850927 0.07067
0.07069 10.8272324763902 11.8882133871929 17.2782348750659 0.637231334711095 2.84947392333075 0.0706800000000001
0.0707 10.7392222664277 11.801357990538 17.287349631267 0.634825932408001 2.84074897148797 0.0706900000000001
0.07071 10.6955897538423 11.6958390336655 17.2359317459118 0.628397140253443 2.84037740157892 0.0707000000000001
0.07072 10.6967679752277 11.8317489169087 17.2456800085123 0.635987166566054 2.84714233886284 0.0707100000000001
0.07073 10.9072876163465 11.6366770884692 17.2050505593375 0.624901037033024 2.83239252688298 0.07072
0.07074 10.9240414091776 11.8857492427724 17.2239505457449 0.642141413197732 2.84235938383776 0.0707300000000001
0.07075 11.0450411736539 11.8543355547988 17.1347543033635 0.644270208542458 2.85876372768254 0.0707400000000001
0.07076 10.9888358340509 11.957885068181 17.2189546702763 0.640079564040502 2.85820980487289 0.07075
0.07077 10.8909892371086 12.1837492745265 16.9747778070086 0.647979895962662 2.8406609231917 0.0707600000000001
0.07078 10.9671010278377 12.131040023559 17.0458939806019 0.644034911874893 2.86798004670606 0.07077
0.07079 11.0587397905091 12.0274588172714 17.0622500911382 0.649351081882272 2.84539622115657 0.0707800000000001
0.0708 10.9954576787045 12.1363535047951 16.9810601030685 0.65172788614168 2.83095292119328 0.0707900000000001
0.07081 10.9300504320512 12.0918524092059 17.0605307835037 0.643246262391073 2.84173315727364 0.0708
0.07082 11.0140602437964 12.1073449945639 17.1148315373718 0.649467253930274 2.85430565077137 0.0708100000000001
0.07083 10.8499999284117 11.8848657384051 17.1780441433409 0.635320319138247 2.85017334001071 0.0708200000000001
0.07084 10.7196508206246 11.9649635489118 17.1555632605812 0.643639050741926 2.82615604156707 0.0708300000000002
0.07085 10.7321130822853 11.9691889115959 17.1657238404824 0.634305296074874 2.84043636430974 0.0708400000000001
0.07086 10.625694701602 12.0128447335396 17.1366218808181 0.639868750373398 2.84522585611326 0.07085
0.07087 10.7528913881459 12.0798042303029 17.1563374033632 0.636047022281189 2.86937080547643 0.0708600000000001
0.07088 10.6326680988289 11.9296162852239 17.2314288171045 0.635663616906418 2.84782109600876 0.0708700000000001
0.07089 10.670294668431 11.9000839478719 17.325673565815 0.633438238541951 2.87037394053202 0.07088
0.0709 10.8139442331005 11.9689774092709 17.2377510617085 0.64583664432485 2.85183029641203 0.0708900000000001
0.07091 10.9831690454619 12.0884665219609 17.2223282270284 0.649952274206767 2.85621473872913 0.0709000000000001
0.07092 10.9058609316488 11.8440162977235 17.2029354224343 0.636781283944711 2.85129805243572 0.07091
0.07093 11.126913447948 11.9961523836598 17.1262244046662 0.64515210297142 2.85594341793924 0.0709200000000001
0.07094 11.1374057477685 12.2615601922154 16.9951827729727 0.660547618711068 2.84071620147239 0.07093
0.07095 11.1983305385613 12.2263629885693 16.9165018818127 0.655778067842141 2.84054415699617 0.0709400000000001
0.07096 11.1304058245103 12.2718857989965 16.9927448865999 0.650765616847767 2.86421127651253 0.0709500000000001
0.07097 11.072386627242 12.3473405218109 16.9953771019289 0.662499640813237 2.8425389279359 0.07096
0.07098 10.9915614959607 12.0807836436256 17.1269627055073 0.642884285775796 2.86408299765783 0.0709700000000001
0.07099 10.8644081964139 11.9233289683921 17.1817530276844 0.632503987420256 2.86874972753996 0.0709800000000001
0.071 10.8224186421073 12.0062210451199 17.2091383833506 0.644490680525939 2.84499815557172 0.0709900000000002
0.07101 10.8653746387798 11.9613355558556 17.2516582267389 0.634673655574933 2.86358759000998 0.0710000000000001
0.07102 10.6455803819155 12.0178011586682 17.3237984425113 0.63902242536823 2.85881778967538 0.07101
0.07103 10.7110231084222 11.8101363857879 17.2485854976692 0.629127150660454 2.85648317711707 0.0710200000000001
0.07104 10.9326463437505 11.967316497421 17.2675857903374 0.645696787121025 2.87031018472949 0.0710300000000001
0.07105 10.8489305522476 11.8388240280357 17.3282108208175 0.634691161442237 2.87788514643705 0.07104
0.07106 10.6530538127636 11.841975944767 17.2610241045111 0.629175110272297 2.85474377939889 0.0710500000000001
0.07107 10.7461047724325 11.9771532118541 17.3154491656677 0.638319633700786 2.86556957840903 0.0710600000000001
0.07108 10.7178714668811 11.847076218725 17.102318368366 0.637993800507321 2.82897531519971 0.0710700000000001
0.07109 10.7729505129192 12.0787956394097 17.1707762428612 0.643082076282045 2.86738732967044 0.0710800000000001
0.0711 10.9273468962159 12.1678230715761 17.1691571864524 0.654245343891158 2.86558593667962 0.07109
0.07111 11.0472725458967 12.3072983967307 17.1171324352138 0.658664798871917 2.85688577703109 0.0711000000000001
0.07112 11.005568524927 12.0643361313617 17.1987338150628 0.646620981987761 2.87248516842303 0.0711100000000001
0.07113 10.9644160839887 12.0381345385416 17.1957994031894 0.646568843486096 2.8623145229389 0.0711200000000002
0.07114 11.1531841007956 12.2926227614714 17.0336840111173 0.659442253721954 2.8302704083941 0.0711300000000001
0.07115 11.042515089463 12.3050672244957 17.0809197822497 0.658943965049229 2.84904881400284 0.0711400000000001
0.07116 11.1760740021898 12.3152558335143 17.0004580876641 0.65758403771043 2.86361656165804 0.0711500000000001
0.07117 11.0530015587759 12.1011929184958 17.1977469273767 0.654410521277047 2.84719829612759 0.0711600000000001
0.07118 10.9541983478233 12.0680139718126 17.1689917386227 0.641930812116879 2.86533481191562 0.07117
0.07119 10.8109398498869 11.9010215629185 17.2235181101116 0.632704276300595 2.87119974224582 0.0711800000000001
0.0712 10.8111004861698 12.0648041204528 17.2713983458176 0.643876844441282 2.86226994315506 0.0711900000000001
0.07121 10.7908520236011 12.0935503830611 17.3547166144849 0.637791118143061 2.87688576540297 0.0712
0.07122 10.8286960746559 12.0450494286975 17.2823083800824 0.639431375241413 2.86308516870824 0.0712100000000001
0.07123 10.8239227616476 11.9497905252345 17.2406382012207 0.647017885836545 2.84738154314384 0.07122
0.07124 10.7820003284787 11.9460280808658 17.2573137879477 0.637186319387152 2.86499218939582 0.0712300000000001
0.07125 10.6880748481384 11.8570103444553 17.4295576099636 0.632239867366767 2.8831528236172 0.0712400000000001
0.07126 10.8182858274673 12.057615117925 17.2385414646081 0.637703245439329 2.8540673737124 0.07125
0.07127 10.9181741914008 12.116044426246 17.1794636464556 0.6490275340665 2.85427238682642 0.0712600000000001
0.07128 11.1643348497875 12.1855702995946 17.2085527924556 0.649170605615127 2.87932529725083 0.0712700000000001
0.07129 11.2589281159357 12.3236270892981 16.972472086435 0.664474921503461 2.8422118448126 0.0712800000000001
0.0713 10.9337631720702 11.9431952918195 17.0836301088983 0.64006769796508 2.85920685630465 0.0712900000000001
0.07131 11.0104137200416 12.0385534400658 17.2041780725768 0.646952129331303 2.86359386036232 0.0713
0.07132 11.1370614110068 12.227695425946 17.0567312932626 0.652048671369958 2.84804942102727 0.0713100000000001
0.07133 11.2201969090675 12.3626003711991 17.0277111732893 0.663076732932183 2.84867227865579 0.0713200000000001
0.07134 11.0147515427578 12.1843344594097 17.2343648475164 0.649248525078786 2.8646867632661 0.07133
0.07135 11.1028695164395 12.1034933711624 17.2724184151187 0.6607631926461 2.85174858713598 0.0713400000000001
0.07136 10.851771282471 11.880825907701 17.3938934499299 0.637770907841244 2.88002454031066 0.0713500000000001
0.07137 10.8824447365411 11.8770291349014 17.4261191189399 0.6403837939808 2.88809908003511 0.0713600000000001
0.07138 10.7985794563486 11.8785829255025 17.4877821794557 0.637100877486909 2.89083075281017 0.0713700000000001
0.07139 10.9168333777605 12.0340463872607 17.3449613448665 0.645393334562335 2.86542555422745 0.07138
0.0714 10.7053763567318 12.0164679494563 17.5671141317131 0.630835455663587 2.89495860092827 0.0713900000000001
0.07141 10.5700480568302 12.180366449735 17.500803705972 0.637827447072358 2.89844694552844 0.0714000000000001
0.07142 10.7691042311349 12.0316370333732 17.4323761002313 0.638032395880766 2.88563893692193 0.07141
0.07143 10.7436931181326 11.8982917601581 17.3780904176933 0.637975482452858 2.8797489807416 0.0714200000000001
0.07144 10.9475859412005 12.1450526971861 17.3217361408716 0.649508097756208 2.85641084989919 0.07143
0.07145 11.0243809253434 12.0875600222622 17.2836399802769 0.642583328710046 2.87278638852603 0.0714400000000001
0.07146 11.0901484672804 12.1920761359478 17.1658561367574 0.649195703847867 2.85807076348538 0.0714500000000001
0.07147 11.2003070120552 12.3908188231831 17.0222508186186 0.661474762380546 2.84958789656784 0.07146
0.07148 11.3119996005971 12.5719509892329 17.0028172181836 0.669297916588751 2.85214277969656 0.0714700000000001
0.07149 11.2208731532101 12.4596737232688 17.0390633826773 0.665331825754533 2.85551605711364 0.0714800000000001
0.0715 11.1131349980384 12.4394282253884 17.0483894136313 0.658870085841065 2.84980307982646 0.07149
0.07151 11.033209928558 12.3283929147331 17.2045205782007 0.654118900008828 2.88726511349692 0.0715000000000001
0.07152 11.1213384544381 12.1804861567881 17.2775104640789 0.657323304774266 2.86565220726219 0.07151
0.07153 11.060420556596 12.1324629890045 17.226256893226 0.645465607408582 2.89181956475867 0.0715200000000001
0.07154 10.8962411145125 12.1444694677232 17.3155482569826 0.644358172659864 2.87878247031454 0.0715300000000001
0.07155 10.8303539765872 12.1047011516035 17.3587961802602 0.634535387612856 2.89877792021733 0.07154
0.07156 10.8660342289241 12.010176724793 17.2546145369538 0.642386993947475 2.86365693464607 0.0715500000000001
0.07157 10.9570432027624 12.173566036259 17.2613477575555 0.649205336442782 2.86932026300092 0.0715600000000001
0.07158 10.9280049999477 11.8639328495811 17.4538643655829 0.638796848910899 2.88031499645079 0.0715700000000001
0.07159 10.8468355664871 11.785212999196 17.4000795687969 0.634989162587552 2.87344375607025 0.0715800000000001
0.0716 10.9636881811263 12.134585333748 17.4381164236747 0.647711241633648 2.88089545199017 0.07159
0.07161 10.7936425627958 12.1124775753681 17.34187095095 0.644651816413488 2.87128439431902 0.0716000000000001
0.07162 10.8402105299156 12.1175672148342 17.3096789881975 0.638429435081494 2.89240836570607 0.0716100000000001
0.07163 10.9277515996869 11.9442620975133 17.4071939533643 0.643002719014133 2.87611274874145 0.07162
0.07164 10.9742590220299 12.0454138478514 17.3647195927894 0.643145157443732 2.8785094807872 0.0716300000000001
0.07165 10.9533153426579 12.1064146409659 17.3163820282766 0.653315939820836 2.86790215898898 0.0716400000000001
0.07166 11.2670548013802 12.0444421040502 17.3765341929958 0.653659457869922 2.88819910128768 0.0716500000000001
0.07167 11.3249981795513 12.3602888875542 17.1916313988764 0.66395031902958 2.87412479721647 0.0716600000000001
0.07168 11.3524877371668 12.4391306943399 17.1078908193787 0.663331890986197 2.87037782794788 0.07167
0.07169 11.2243497695273 12.5230065570327 17.1694830264557 0.669504525129168 2.86993712937854 0.0716800000000001
0.0717 11.2003994112656 12.2158652833366 17.279159895153 0.657011197653653 2.88319587020469 0.0716900000000001
0.07171 10.9653409216289 12.0260565804398 17.3258608533637 0.647988114050561 2.8845244593616 0.0717
0.07172 10.8794279515297 12.2286534814976 17.4144746258257 0.642352449683741 2.90260085065316 0.0717100000000001
0.07173 10.8498592097833 12.2687833203619 17.3669427603651 0.650413670184845 2.87844625577351 0.0717200000000001
0.07174 11.0958962682921 12.3312770913927 17.1639593144035 0.657410974909539 2.88174006140544 0.0717300000000001
0.07175 11.0148339869185 12.2349355400156 17.3659583770839 0.651151102326474 2.88721400194807 0.0717400000000001
0.07176 10.9719651792562 12.0981642331645 17.4708145776285 0.641994893900485 2.88854700735346 0.07175
0.07177 11.0487232415633 12.0533492580983 17.3020503361629 0.639307257240879 2.87424519679606 0.0717600000000001
0.07178 10.8170848795026 12.0554855875886 17.4964582202287 0.639800554626596 2.89261922160865 0.0717700000000001
0.07179 10.9264270714196 11.9591809790011 17.3979811763736 0.64755886416022 2.86801385558266 0.07178
0.0718 10.9702114813422 12.1902627983634 17.3683465003559 0.645177601396082 2.89472698595427 0.0717900000000001
0.07181 11.1585378997656 12.1209897374511 17.3414763838597 0.655123318830348 2.89588135216196 0.0718000000000001
0.07182 11.3604409445688 12.1099483499609 17.2649260854947 0.660001443325189 2.87014201738377 0.0718100000000001
0.07183 11.3327184788187 12.4424281728748 17.250546089523 0.661039878828061 2.89240329198988 0.0718200000000001
0.07184 11.1458345327938 12.3451224714439 17.2176928530609 0.659970933947123 2.88018667063057 0.07183
0.07185 11.0306394664336 12.1978460830681 17.340059883161 0.6506016742509 2.88715503017412 0.0718400000000001
0.07186 11.2375520127863 12.3903301085578 17.2881294303346 0.658824895709906 2.88783942076676 0.0718500000000001
0.07187 11.2999566087106 12.3212429559438 17.2018251500205 0.664504833323891 2.87124514236441 0.0718600000000002
0.07188 11.2994715681081 12.3795842551896 17.2440169266431 0.663864792347643 2.87987186963531 0.0718700000000001
0.07189 10.9182173810732 12.189692288432 17.3611378121304 0.654761078605305 2.88319123656861 0.0718800000000001
0.0719 10.9025848148131 12.1773266813536 17.3240100344828 0.643610067414261 2.89926876027647 0.0718900000000001
0.07191 10.8649392137177 11.9999481924032 17.4919681323665 0.637201743817721 2.90959420145692 0.0719000000000001
0.07192 10.8466714409094 12.0437417125303 17.4897032078186 0.641764186998798 2.90273023520767 0.07191
0.07193 11.0472214867525 11.9981556346491 17.463603601202 0.647758693645344 2.88123300935711 0.0719200000000001
0.07194 11.0883540491793 12.130512075246 17.4371901243095 0.641287339333105 2.9003534832606 0.0719300000000001
0.07195 10.8864303864587 12.1090854138763 17.5902193631509 0.640138566951736 2.91014448445759 0.07194
0.07196 10.9953481705269 11.9781599967878 17.4993263028281 0.642320003425383 2.88696847279959 0.0719500000000001
0.07197 10.9860684528754 12.1871350092405 17.4284283346728 0.650182651117109 2.88858172871274 0.0719600000000001
0.07198 10.973820675962 12.0714203152025 17.4305764942444 0.646061200542135 2.9008078219611 0.0719700000000001
0.07199 11.0949848576787 12.1301388840345 17.437307786715 0.648129820516703 2.90174344927869 0.0719800000000001
0.072 11.0302159079249 12.4636106434379 17.3465204154999 0.661986989843081 2.86986244493218 0.07199
0.07201 10.8738774000736 12.3994456742767 17.3415075770177 0.655839024255197 2.88637991845976 0.0720000000000001
0.07202 11.13267260252 12.5129865825771 17.2674777647928 0.659876483421106 2.8885152198804 0.0720100000000001
0.07203 11.2456609963539 12.4230887013156 17.2908352332448 0.669751796971893 2.8742580544144 0.0720200000000002
0.07204 11.4118884463991 12.4114998846685 17.071399058448 0.674635172985369 2.85552670194783 0.0720300000000001
0.07205 11.2927347365693 12.2213284821414 17.2509437936824 0.65872694666749 2.86423483861582 0.07204
0.07206 11.2892060152759 12.439728221222 17.3022539995071 0.673774563498111 2.8801291535143 0.0720500000000001
0.07207 11.2131121722746 12.4254498936832 17.2614005927693 0.660576302495978 2.90120261415853 0.0720600000000001
0.07208 11.1355297064905 12.5205036489079 17.2969737367097 0.670956014721926 2.88131614659594 0.07207
0.07209 10.8692281347985 12.189880157183 17.5046346304762 0.642186671947619 2.90875140112484 0.0720800000000001
0.0721 11.1637742377401 12.2124582787294 17.4307148669672 0.648400540638367 2.91349442724375 0.0720900000000001
0.07211 11.1181965302777 11.9649444194422 17.6822599051584 0.644724308117859 2.90692104531065 0.0721
0.07212 10.9106812079331 11.827995063643 17.5684381604098 0.637198829837586 2.88421793957916 0.0721100000000001
0.07213 10.7786942592501 12.0315450292676 17.5898687596855 0.645967219333455 2.90913217262899 0.07212
0.07214 10.9203124335598 12.0782240334557 17.6012331891622 0.648625172793534 2.89724424266237 0.0721300000000001
0.07215 11.0286393046873 11.8936280026453 17.4909181922103 0.644885129559155 2.89259462093164 0.0721400000000001
0.07216 11.1179653446454 12.1013347444995 17.4001787413313 0.653131469640772 2.88359128765663 0.07215
0.07217 11.1259258609265 12.2510211127526 17.3268861333932 0.654334526005865 2.88072010403385 0.0721600000000001
0.07218 11.2976316147271 12.2833579433835 17.3966248531339 0.65552383571754 2.89647641508729 0.0721700000000001
0.07219 11.1998763512953 12.1802846921362 17.5007594382155 0.657003603816401 2.89342375856477 0.0721800000000001
0.0722 11.0469073713472 12.1904770393044 17.5265193810714 0.646550248295321 2.91474488381895 0.0721900000000001
0.07221 11.3662925963501 12.393392834773 17.4265356997287 0.675140974427247 2.89181254727966 0.0722
0.07222 11.3386129430434 12.3283948116693 17.4011291348231 0.666325706571418 2.89724315965567 0.0722100000000001
0.07223 11.1641359506182 12.3788323699017 17.3870047348387 0.663109039144773 2.90339880272188 0.0722200000000001
0.07224 11.1004958336518 12.452758606715 17.4646959992174 0.666469544278871 2.89863511904725 0.07223
0.07225 11.0056976567158 12.2182500692512 17.3935432100306 0.644320122598323 2.90987062794585 0.0722400000000001
0.07226 11.1528943123984 12.2286188993131 17.441649164153 0.660112330265231 2.88843228263335 0.0722500000000001
0.07227 11.1053920231819 12.4768703490994 17.3979365981584 0.651968780588576 2.91555531496047 0.0722600000000001
0.07228 11.1498804425833 12.369004622351 17.3484966253351 0.656725451236941 2.8797055781144 0.0722700000000001
0.07229 11.3109143704346 12.3579716946697 17.2992409576971 0.673939957842183 2.86894882494695 0.07228
0.0723 11.3707586594995 12.4427123775404 17.3542127920198 0.669006282870465 2.90459120811617 0.0722900000000001
0.07231 11.1380969087443 12.304384171587 17.5012924038115 0.652629433668519 2.90189519096607 0.0723000000000001
0.07232 10.9308706001833 12.036508854567 17.5851630619884 0.645189488355297 2.89368457549884 0.07231
0.07233 11.1205110343326 12.3384361665688 17.4619723700277 0.661741195311784 2.89534558386867 0.0723200000000001
0.07234 10.9845911165838 12.1631947585951 17.4758155615781 0.656487408485327 2.88756202302424 0.07233
0.07235 11.0862923625329 12.2535208060127 17.5136567680087 0.657500960115906 2.89658841045877 0.0723400000000001
0.07236 11.0772396841937 12.4131517108712 17.5022608864648 0.655691654817225 2.92776097512293 0.0723500000000001
0.07237 11.2090780323517 12.3631293802689 17.3876117067457 0.663961385259362 2.90189567404366 0.07236
0.07238 11.1519496643902 12.3453952697967 17.3744829297605 0.661594531655658 2.89929041458967 0.0723700000000001
0.07239 11.4096727250662 12.4626412536814 17.4213619187124 0.669625158643742 2.90344318001708 0.0723800000000001
0.0724 11.2921158720735 12.3852002322109 17.5371498533823 0.666945972178952 2.90520012081187 0.07239
0.07241 11.1324590572045 12.3429927704783 17.4076051408277 0.65308040203859 2.89787811563182 0.0724000000000001
0.07242 11.0176912059403 12.2480558702539 17.4807647524598 0.658415668440795 2.90020595104535 0.07241
0.07243 11.1539127698088 12.3463010704621 17.4740920188291 0.666345945799649 2.90175766356238 0.0724200000000001
0.07244 11.0541351178896 12.3363262502623 17.4495646317571 0.653015499583384 2.92506208070398 0.0724300000000001
0.07245 11.2768403769375 12.2469963034126 17.3634852294387 0.656743704120531 2.91382903451762 0.07244
0.07246 11.3061221008742 12.3592251551344 17.3119321366408 0.661837114548241 2.91648437933708 0.0724500000000001
0.07247 11.1869485231603 12.3389467404654 17.5073915858784 0.661498079280721 2.91044673247071 0.0724600000000001
0.07248 10.9795405938471 12.2609933888667 17.5815218999202 0.651632049619036 2.92220021921998 0.0724700000000001
0.07249 11.0719940683332 12.3070482997284 17.5244718988349 0.65877210742029 2.91334211093399 0.0724800000000001
0.0725 11.0950650751047 12.4404658153754 17.5001973136036 0.660933051050065 2.90177458127199 0.07249
0.07251 10.9858235054583 12.165267971378 17.545863151383 0.641867387697975 2.92170220701827 0.0725000000000001
0.07252 11.0653367856916 12.3926820795933 17.5072915844617 0.660745977582291 2.91186069752785 0.0725100000000001
0.07253 10.876348630288 12.313289843156 17.5251282861934 0.643589974121048 2.94473565580956 0.07252
0.07254 10.8032030204142 12.3177492412923 17.545278386014 0.64795260102715 2.91576660315758 0.0725300000000001
0.07255 11.1850430745451 12.3615914973433 17.463591087044 0.662362837191157 2.92656886458806 0.07254
0.07256 11.1110070029511 12.5902943534124 17.355349270174 0.667165082153603 2.89445334895602 0.0725500000000001
0.07257 11.5877802199664 12.4901347882119 17.3484327980862 0.675616088374018 2.88436329076388 0.0725600000000001
0.07258 11.5131935491985 12.4506403710888 17.359219497161 0.670522665252711 2.90415905532907 0.07257
0.07259 11.4924214196533 12.5461009312221 17.3583540225506 0.676064551295571 2.90853598244418 0.0725800000000001
0.0726 11.5553130732776 12.4912639486425 17.3635370358629 0.672639943826423 2.90187365013848 0.0725900000000001
0.07261 11.288281103995 12.4196529302292 17.3883462724817 0.658521592683926 2.91858754018515 0.0726
0.07262 11.2050408239945 12.3407908718302 17.5018298591572 0.6611805934306 2.90225226844221 0.0726100000000001
0.07263 11.1658757858558 12.1587503686185 17.5473414057065 0.647888958071785 2.92116115991964 0.07262
0.07264 11.2536170666738 12.3407320435281 17.6059164668004 0.653533503763929 2.93475376800627 0.0726300000000001
0.07265 11.1189828610116 12.255208293852 17.5851062899183 0.65711089329513 2.90833133753202 0.0726400000000001
0.07266 11.2318157737847 12.5220901195479 17.3081943199503 0.668291286693507 2.89949923354958 0.07265
0.07267 11.1341058516023 12.3890198559439 17.5714615313277 0.662888515897239 2.91743276539522 0.0726600000000001
0.07268 11.2181831953741 12.162178272181 17.5921894378894 0.649549763946911 2.92996870292536 0.0726700000000001
0.07269 10.9914128764702 12.2381943628482 17.600655444599 0.653571510378194 2.90986827489442 0.07268
0.0727 10.9068408911865 12.1741189720138 17.7162917644755 0.644865499211021 2.94400609751957 0.0726900000000001
0.07271 11.2197820560284 12.2542251110411 17.5889049983734 0.657211478529196 2.92217254012785 0.0727
0.07272 11.0512324604033 12.4928127422552 17.5732556186304 0.658055676278684 2.91771806119586 0.0727100000000001
0.07273 11.1578221132799 12.2483809909219 17.6218714583066 0.659925186069124 2.92021743363472 0.0727200000000001
0.07274 11.3376072556186 12.3220466699542 17.4391624655032 0.6631247350288 2.90024423372085 0.07273
0.07275 11.2610379943129 12.5261068538282 17.3510036124204 0.670075392749128 2.89442088893082 0.0727400000000001
0.07276 11.6651123160402 12.5131350492061 17.2331521457288 0.673590737959669 2.91396901446354 0.0727500000000001
0.07277 11.4640493687459 12.6818754451219 17.3211966727324 0.677335505940867 2.90812602457279 0.0727600000000002
0.07278 11.4277804095278 12.5663362588136 17.4963028200046 0.6771068331805 2.91097059113656 0.0727700000000001
0.07279 11.2967431800651 12.2299393236276 17.5468900803586 0.657331710840315 2.90051615357239 0.07278
0.0728 11.0888144259489 12.3051846581963 17.6170657353053 0.662195951470184 2.92292034739844 0.0727900000000001
0.07281 11.1863964602182 12.4417025007645 17.5536595624515 0.661148634047396 2.93044924904616 0.0728000000000001
0.07282 11.0823959128296 12.692894370471 17.5620748738327 0.664209111556236 2.94487450041521 0.07281
0.07283 11.0577628195517 12.4013477858413 17.5707618463046 0.663187387183517 2.9059681871928 0.0728200000000001
0.07284 11.2149010886758 12.2170323191236 17.6454779914222 0.654158086939206 2.92467121213268 0.0728300000000001
0.07285 11.0647924434607 12.1724093779291 17.7163228236588 0.65152916198882 2.93020404207157 0.0728400000000002
0.07286 10.9978474436553 12.3122830094677 17.6697303145515 0.650112766656946 2.93264995347145 0.0728500000000001
0.07287 11.1694822400031 12.3088003986389 17.7130657583995 0.659531901440787 2.91932559256117 0.07286
0.07288 11.1163016421242 12.479771898083 17.6242068594102 0.662462998131078 2.93062722082961 0.0728700000000001
0.07289 11.3063796094259 12.5706079577734 17.4720682587638 0.667189039047905 2.91874096507993 0.0728800000000001
0.0729 11.4208380186163 12.4950048125508 17.4757310279724 0.667151416136051 2.92231498674951 0.07289
0.07291 11.159835806774 12.5739671075266 17.4638668021563 0.669506263480411 2.89252187166124 0.0729000000000001
0.07292 11.5298056292873 12.6940058524368 17.4460625950596 0.691183920460096 2.90305599714626 0.0729100000000001
0.07293 11.6261347609975 12.6496950008562 17.4648274150351 0.678623416820157 2.92904909087442 0.0729200000000002
0.07294 11.3126865013624 12.531592736597 17.4676669312665 0.673517052495622 2.90387619741775 0.0729300000000001
0.07295 11.4179557020455 12.4578132217261 17.6336609436779 0.669992589007779 2.94201625150914 0.07294
0.07296 11.289238358305 12.5652415590002 17.512237009866 0.669222313177593 2.9468475200407 0.0729500000000001
0.07297 11.2737148308281 12.4592527648145 17.5239262186007 0.667855207436655 2.92342040064085 0.0729600000000001
0.07298 11.2765470102759 12.4155657091106 17.5142118937443 0.662228580129021 2.92291052358076 0.07297
0.07299 11.2479430001956 12.3417567282475 17.5066111379877 0.663234575225646 2.92527410331439 0.0729800000000001
0.073 10.9651647704017 12.1733269517353 17.7238834592608 0.653653017113955 2.92628555187502 0.0729900000000001
0.07301 11.2015207074298 12.3212640005866 17.6601465523115 0.655474475780483 2.94836932728643 0.0730000000000001
0.07302 11.1374617082884 12.273705270611 17.7395814705984 0.653810658423204 2.93837333585424 0.0730100000000001
0.07303 11.0933436395462 12.0790070415902 17.8267283357484 0.649314346671624 2.92871982026501 0.07302
0.07304 11.266031660467 12.1560198755233 17.7207636655134 0.657375862113427 2.93387959319866 0.0730300000000001
0.07305 11.1284461553728 12.3086883895958 17.6282624793749 0.66123097076756 2.92740344937481 0.0730400000000001
0.07306 11.4204547714175 12.5186224426038 17.5254024340779 0.67434886924662 2.92932126841497 0.0730500000000002
0.07307 11.4508352265944 12.4276084815916 17.4901735698426 0.665265464749328 2.94459142650842 0.0730600000000001
0.07308 11.4702700439577 12.5933695612164 17.560253408597 0.673335459409603 2.93601077426837 0.0730700000000001
0.07309 11.5001017148371 12.5311571791869 17.4846586136044 0.679489046341922 2.91273236253438 0.0730800000000001
0.0731 11.4774301962981 12.4234319077601 17.5542434445147 0.667532140109246 2.93378068700199 0.0730900000000001
0.07311 11.0965151229062 12.4161513910442 17.6223342839206 0.661109163025242 2.93299394514148 0.0731
0.07312 11.2485643821624 12.6251884541338 17.6252972521489 0.671556504836619 2.93745379863967 0.0731100000000001
0.07313 11.4535237936718 12.8630340432128 17.5278006268787 0.686169777626256 2.92729762240745 0.0731200000000001
0.07314 11.2689887322998 12.8055353363756 17.5044885282073 0.677597463601651 2.92005798393863 0.07313
0.07315 11.324952163867 12.4290188375284 17.4860447087921 0.667505702715257 2.91849028403752 0.0731400000000001
0.07316 11.1632017292326 12.6262819372783 17.5193976053894 0.661479739206232 2.93807331452941 0.07315
0.07317 11.223668349746 12.5382847271815 17.5781411541489 0.66501667434163 2.93637519981603 0.0731600000000001
0.07318 11.0851086657075 12.2377224505984 17.7620154185668 0.653873650426884 2.95790261440268 0.0731700000000001
0.07319 11.2052787217719 12.3094763646484 17.6931121523716 0.65768691363293 2.94280936607096 0.07318
0.0732 11.2337240114434 12.448872246387 17.7308304031399 0.662343158528745 2.957372726009 0.0731900000000001
0.07321 11.2116156176279 12.317576519554 17.7859606030415 0.661751656457888 2.94372888352239 0.0732000000000001
0.07322 11.2286008088543 12.5447059079063 17.5812062451118 0.663778792296094 2.94646792055307 0.0732100000000001
0.07323 11.2327010552151 12.4951058005684 17.6647591802269 0.666315667570949 2.94802846838648 0.0732200000000001
0.07324 11.4044977694677 12.4729505077219 17.4919420875382 0.669288034478449 2.92683428374581 0.07323
0.07325 11.3951269653118 12.3932288092132 17.5319213605004 0.668640165210327 2.91676374261702 0.0732400000000001
0.07326 11.3872617680713 12.5399916238898 17.4987332022818 0.676021973996736 2.92374054400919 0.0732500000000001
0.07327 11.6332504659604 12.7195632525003 17.5078079659563 0.680638302816332 2.94966437706266 0.07326
0.07328 11.6263566015734 12.695751130309 17.5901962908965 0.680797458459892 2.94500067910425 0.0732700000000001
0.07329 11.4242439398324 12.6392135359315 17.6390071808942 0.675286615009494 2.92876839702095 0.0732800000000001
0.0733 11.2181467632393 12.5963159079836 17.6263612220051 0.663825084352564 2.94362000854198 0.0732900000000001
0.07331 11.234129112494 12.4591691701338 17.715448996012 0.669964153081412 2.9285243156168 0.0733000000000001
0.07332 11.048734032953 12.222620147623 17.86069449483 0.65402187741281 2.95896229493063 0.07331
0.07333 10.9850420910087 12.2067150482125 17.9283177303291 0.641607014603918 2.96938878565886 0.0733200000000001
0.07334 11.0749344094004 12.3174386974462 17.757412453599 0.649884924150124 2.95943163895782 0.0733300000000001
0.07335 11.4372973033073 12.6364100527535 17.724769361265 0.67837508830411 2.95730989364579 0.0733400000000002
0.07336 11.4512770982188 12.4811712440911 17.6948190102574 0.675464618608654 2.93463590327381 0.0733500000000001
0.07337 11.2201954342717 12.3910127519772 17.7787214486255 0.658977838105518 2.95548449335651 0.0733600000000001
0.07338 11.2880927397707 12.4448088291168 17.7373456383863 0.666549057665595 2.96366084446351 0.0733700000000001
0.07339 11.2120423551292 12.3233579898201 17.6975706332683 0.664519797460685 2.95173733481303 0.0733800000000001
0.0734 11.098758427134 12.4480116766145 17.7307056528932 0.659841437567886 2.9592507080393 0.07339
0.07341 11.3754816178942 12.6777390595035 17.6954830266094 0.678374415910988 2.93878189506015 0.0734000000000001
0.07342 11.3219036925657 12.5563339264236 17.6955126178064 0.664459901786853 2.95686591510151 0.0734100000000001
0.07343 11.4848720414815 12.6001432539413 17.5435225358786 0.672776177286322 2.92847325543676 0.07342
0.07344 11.7692415034456 12.768487573284 17.4082320678079 0.688878788928687 2.91394558884096 0.0734300000000001
0.07345 11.6098614733633 12.8165797363857 17.4291593894257 0.679852556088364 2.93910743436921 0.07344
0.07346 11.5957686985063 12.8360749391442 17.4947153749896 0.688285548318377 2.9408749493812 0.0734500000000001
0.07347 11.4710495597581 12.7252618287671 17.5630946796601 0.675532070597021 2.94689648331993 0.0734600000000001
0.07348 11.6023038703926 12.5088812084777 17.539007479687 0.678489014651874 2.93306909848207 0.07347
0.07349 11.3694477079293 12.5974895965785 17.711306919883 0.664916575032854 2.94147580826818 0.0734800000000001
0.0735 11.0513300604994 12.5911146457186 17.661699027027 0.664292731004207 2.92925194025329 0.0734900000000001
0.07351 11.1636747551389 12.3713805536508 17.7170360311287 0.653910280870285 2.95070497948446 0.0735000000000001
0.07352 11.0997814613589 12.2077091558977 17.8766550874134 0.646148630759675 2.96510959762413 0.0735100000000001
0.07353 11.1560694676543 12.538846970743 17.7573508577871 0.660520998396366 2.97308622828377 0.07352
0.07354 11.0599893949953 12.3996638618256 17.8903096654055 0.653847665729488 2.96361154032395 0.0735300000000001
0.07355 11.2239895526995 12.4570547839701 17.7962462783366 0.665245390923631 2.96916608555185 0.0735400000000001
0.07356 11.3896737683975 12.4065182205503 17.8222044607041 0.670689157428764 2.95976841406569 0.07355
0.07357 11.5301823191697 12.5412464870883 17.7484109103705 0.676687518419385 2.94272902286409 0.0735600000000001
0.07358 11.5746175859687 12.6859429830635 17.5929212278761 0.677043996566023 2.94635091630946 0.0735700000000001
0.07359 11.5381492701272 12.4856206337951 17.7431545952775 0.673889930604954 2.94976992925852 0.0735800000000001
0.0736 11.3494212492201 12.3880194673144 17.7083033709376 0.665271424966091 2.9409965803284 0.0735900000000001
0.07361 11.5289784115194 12.4310795774591 17.6637075913833 0.675175984722778 2.940566320637 0.0736
0.07362 11.4238822282823 12.4901587381725 17.785696456454 0.669733334987698 2.96363086054095 0.0736100000000001
0.07363 11.4708540412472 12.5379718725445 17.6066341178758 0.677907576870158 2.93027512564188 0.0736200000000001
0.07364 11.3905803164825 12.540708157207 17.7170021706115 0.674573365171027 2.94774263739722 0.07363
0.07365 11.2673288038071 12.4946771762401 17.7206505537775 0.664119235689349 2.96085176516944 0.0736400000000001
0.07366 11.5718666978993 12.80108520203 17.5934097953796 0.684869843949781 2.94431676881636 0.0736500000000001
0.07367 11.3524487185051 12.5505451094715 17.578095085613 0.676149393557825 2.93728300984245 0.0736600000000001
0.07368 11.3759326700589 12.4552376323262 17.6826295126334 0.672764587688958 2.94916068379564 0.0736700000000001
0.07369 11.4850137318878 12.8148218774363 17.5836681331135 0.67497308245806 2.96726460756919 0.07368
0.0737 11.5608289734863 12.603343254079 17.6287405084201 0.676766355620407 2.96356916871278 0.0736900000000001
0.07371 11.2113284089052 12.6138660307583 17.6799659223223 0.674426506601545 2.93668251842678 0.0737000000000001
0.07372 11.3812671952501 12.5484843005345 17.620536558583 0.67212453585202 2.94345667311971 0.07371
0.07373 11.3488794624968 12.7071211471601 17.5924158492863 0.679371709996809 2.92885173472651 0.0737200000000001
0.07374 11.3132407067216 12.710944973511 17.7077720800519 0.675177651408929 2.93867152502212 0.0737300000000001
0.07375 11.6201674236544 12.8716403626787 17.4673803911814 0.683352134767392 2.93434561076078 0.0737400000000001
0.07376 11.4898179684057 12.5056894561162 17.5594764256365 0.671342713674629 2.93648869294503 0.0737500000000001
0.07377 11.546716151748 12.7544398766049 17.6001334283469 0.678710798588991 2.95394182003693 0.07376
0.07378 11.4853974248418 12.6434221125737 17.5385839377622 0.670385741961991 2.96440486418067 0.0737700000000001
0.07379 11.341543615781 12.4018972361985 17.6519929765731 0.663647052142394 2.95132573752983 0.0737800000000001
0.0738 11.4145937655295 12.5556298652433 17.6465375114463 0.667694526709556 2.94882315559152 0.0737900000000002
0.07381 11.4582022240413 12.5826296073283 17.6790095509675 0.667264166421861 2.95315589463919 0.0738000000000001
0.07382 11.2146000108594 12.3636845703408 17.709373761001 0.668555094303243 2.93606492425984 0.0738100000000001
0.07383 11.2205897197712 12.4247549719815 17.8837422508944 0.658608941128543 2.96777474580157 0.0738200000000001
0.07384 11.3139727795447 12.2414497372128 17.7841884492006 0.661243985612889 2.93259626970961 0.0738300000000001
0.07385 11.16001889764 12.4927776725806 17.8388247297085 0.664463939762873 2.95751669173296 0.07384
0.07386 11.3083222566199 12.4161904404824 17.8308098905108 0.665104802241541 2.95293687312928 0.0738500000000001
0.07387 11.2232190665881 12.6177428336051 17.7841084241188 0.672679511329929 2.96155437824875 0.0738600000000001
0.07388 11.2853468120946 12.5346475353097 17.7502403990728 0.666725374663962 2.95736576297193 0.07387
0.07389 11.3441306966662 12.491733351973 17.8054540201293 0.663865140648795 2.96501156490996 0.0738800000000001
0.0739 11.3920111033816 12.5690355886966 17.7173254861219 0.677019222224074 2.94105455060963 0.0738900000000001
0.07391 11.4120542570658 12.6126265196816 17.7070336495165 0.682558072888625 2.94205005640175 0.0739000000000001
0.07392 11.2929467921584 12.6970896260257 17.6142208603843 0.671303138395287 2.95409469098484 0.0739100000000001
0.07393 11.394270167946 12.5983489010804 17.622138400105 0.679233179609439 2.9571975057298 0.07392
0.07394 11.5077557992417 12.8271321432308 17.6943892040727 0.689952313396458 2.95574402291368 0.0739300000000001
0.07395 11.5885546687146 12.8674379412601 17.5582401051924 0.685905222947156 2.94793125187626 0.0739400000000001
0.07396 11.5894534852659 12.6462650026246 17.7490785407392 0.678954082107094 2.96797692866661 0.0739500000000002
0.07397 11.9262319578456 12.855870947275 17.4876488916807 0.697455817462841 2.94982712008472 0.0739600000000001
0.07398 11.612717305026 12.9362157693346 17.5601895981385 0.689041342027194 2.95798765061474 0.07397
0.07399 11.5880637223139 12.7975406937664 17.65781074316 0.674111174510295 2.96998123256559 0.0739800000000001
0.074 11.4989650195158 12.7121238690964 17.775666813627 0.678857868738994 2.97063497984112 0.0739900000000001
0.07401 11.3451488719819 12.6898950504702 17.833347812186 0.674837160543722 2.96901875713061 0.074
0.07402 11.046868494481 12.5191702481551 17.8630255201302 0.660603137391976 2.96898437887439 0.0740100000000001
0.07403 11.1911148229603 12.3304810467467 17.9411536510405 0.653054340291991 2.99239774203992 0.0740200000000001
0.07404 11.4549907830781 12.4564331199412 17.8653562413217 0.671997336910308 2.96700505941832 0.07403
0.07405 11.3944318924985 12.3352449330448 17.8800758768318 0.6595017024978 2.95330160444688 0.0740400000000001
0.07406 11.5541321758982 12.5737808876307 17.8245124310714 0.675232252981449 2.95742838453269 0.07405
0.07407 11.53453603987 12.8464393997428 17.7848746311949 0.687367753907726 2.95439236759516 0.0740600000000001
0.07408 11.4567990991309 12.6187036816832 17.7459231345458 0.679654752076521 2.94678251357211 0.0740700000000001
0.07409 11.3345367635407 12.3376586898962 17.8284166359457 0.660014051541274 2.97210879056241 0.07408
0.0741 11.3889967428297 12.6266906779392 17.8363113313637 0.674378000162717 2.96912446044629 0.0740900000000001
0.07411 11.4846845992824 12.559596984996 17.7553856169441 0.674304669668684 2.96912176063062 0.0741000000000001
0.07412 11.4465266742867 12.8940374553555 17.7967140812696 0.676638356285418 2.97631690576757 0.0741100000000001
0.07413 11.4835653021083 12.7485683475772 17.8100809801782 0.680193790899503 2.96130880957801 0.0741200000000001
0.07414 11.6166794142816 12.7689732467973 17.7528308525579 0.677728293972378 2.97504028418059 0.07413
0.07415 11.64594520297 12.9295319867558 17.7525535118215 0.692302020306526 2.97186473352847 0.0741400000000001
0.07416 11.4962985091896 12.7509781524892 17.839038334464 0.682341637744525 2.98516545108492 0.0741500000000001
0.07417 11.5705521788038 12.7257027682793 17.6989203601945 0.68138036977255 2.97332884062174 0.07416
0.07418 11.6497665265415 12.6818105752444 17.6314812419168 0.681196820242349 2.9708172540272 0.0741700000000001
0.07419 11.3860990319861 12.7449732877299 17.8335004702731 0.682635041625972 2.96489383947526 0.0741800000000001
0.0742 11.1814368602138 12.5955103728028 18.029609800897 0.664640002391142 2.97781271916999 0.0741900000000001
0.07421 10.9309711703895 12.3983893093347 18.0169985071429 0.654511028010478 2.96838901970213 0.0742000000000001
0.07422 11.1568250574128 12.4508741267698 17.8065502149523 0.66449788388957 2.95215709703595 0.07421
0.07423 11.3308163783585 12.840498036328 17.7784934051793 0.683743639356247 2.98313716545891 0.0742200000000001
0.07424 11.3500750755739 12.7712620036195 17.7688309024674 0.67023140641985 2.97861510727323 0.0742300000000001
0.07425 11.6106180334368 12.695229206196 17.698427145407 0.688893737838522 2.96177690783211 0.07424
0.07426 11.5855643900845 12.9740964144178 17.7535808106727 0.691139727352539 2.97794499070919 0.0742500000000001
0.07427 11.8163068400809 12.9959738649873 17.5979544685565 0.691553031918129 2.95372597352893 0.07426
0.07428 11.6707310886562 12.9786950267076 17.6403427728144 0.696443598270559 2.95527261466917 0.0742700000000001
0.07429 11.7039378738001 12.8588710881924 17.6534914857783 0.686773305402069 2.95991973178174 0.0742800000000001
0.0743 11.7085112534805 12.797156130954 17.6291850782757 0.686467794190799 2.96204263231133 0.07429
0.07431 11.7091628648314 12.8251712638227 17.6688936618941 0.695436651401836 2.95195932741947 0.0743000000000001
0.07432 11.6035571697891 12.7860411252035 17.8505491387595 0.682277433690511 2.9782873900081 0.0743100000000001
0.07433 11.6322382275248 12.5068470209795 17.8647360667471 0.678017953369906 2.97990210546903 0.07432
0.07434 11.609787199801 12.724522688247 17.7920835563296 0.681981418619379 2.96566569690335 0.0743300000000001
0.07435 11.4538923086884 12.5466399391926 17.921703818359 0.668152912805215 2.98228929708526 0.07434
0.07436 11.3973344650371 12.4560840261046 17.9451309242677 0.676947928624352 2.9826966464262 0.0743500000000001
0.07437 11.3713097696031 12.5966409597739 17.9138653770422 0.675396026594693 2.98432317103695 0.0743600000000001
0.07438 11.2417497396712 12.5786732504471 18.0521976839945 0.67515209089732 2.97748255218909 0.07437
0.07439 11.1797092149409 12.4222991030267 18.0215587170897 0.664995686259173 2.96676699552096 0.0743800000000001
0.0744 11.2995730831663 12.3818933020483 18.0679150257202 0.665687398977122 2.99742416420599 0.0743900000000001
0.07441 11.4300605280649 12.6017210371848 17.9362891143768 0.673476755991306 2.97356762135113 0.0744000000000001
0.07442 11.3990760799119 12.6532687340166 17.8657650675723 0.679892236223921 2.96031828745309 0.0744100000000001
0.07443 11.5856436909628 12.6745727225214 17.8547852489957 0.678565102066654 2.96376898527379 0.07442
0.07444 11.7382924879051 12.9367349373089 17.7638038350924 0.694037268363337 2.97201926976904 0.0744300000000001
0.07445 11.9367400658964 13.0962359065508 17.6587999360727 0.705881002641032 2.96695272718072 0.0744400000000001
0.07446 11.811614137997 12.9714459836782 17.7159937507454 0.696234107052041 2.97921854878556 0.07445
0.07447 11.6866257112872 12.8881733995595 17.7025187872193 0.689601590670672 2.96922742291941 0.0744600000000001
0.07448 11.7480274978396 12.8585550406947 17.7013003717225 0.697059624409175 2.96080949354772 0.0744700000000001
0.07449 11.479708766263 12.6602561136569 17.8219551882513 0.674322973675513 2.97456421957307 0.0744800000000001
0.0745 11.5917151464638 12.7689929573536 17.8735141023453 0.686466258593899 2.97478072931778 0.0744900000000001
0.07451 11.5460359735648 12.7366756343292 17.8841305311959 0.682475777693213 2.95332908549681 0.0745
0.07452 11.6154465705918 12.5877155487881 17.901108043541 0.6748226161989 2.95893232977765 0.0745100000000001
0.07453 11.4460188388647 12.6593749318157 18.0260779489522 0.678139673890814 2.97490557311739 0.0745200000000001
0.07454 11.406518605566 12.6505118620481 18.0086275317587 0.675335947208405 2.98177973249789 0.07453
0.07455 11.3014548644159 12.6843555987971 17.9186526659752 0.673956020681065 2.97784992047792 0.0745400000000001
0.07456 11.430172054576 12.606023332894 17.8861160629444 0.675193858148951 2.97586201138584 0.07455
0.07457 11.6009385970837 12.6880009462607 17.9332809411209 0.678611580303698 2.98719169986009 0.0745600000000001
0.07458 11.4634143604859 12.7965162841461 17.8005126978762 0.680972649942684 2.97038076232203 0.0745700000000001
0.07459 11.580199317279 12.7991100475184 17.8093348284093 0.685073567923428 2.97261778151341 0.07458
0.0746 11.8661841770026 12.7487314360085 17.6913437099569 0.691427829977551 2.97180534459516 0.0745900000000001
0.07461 11.5674039058889 12.8311580975214 17.8329250204619 0.678929904861286 2.99524253842392 0.0746000000000001
0.07462 11.8225642178501 13.0723177550588 17.7957799624581 0.693488724437856 2.99859683718112 0.07461
0.07463 11.5795678771761 12.804004128542 17.8166879745646 0.676706397358444 2.98640249408018 0.0746200000000001
0.07464 11.7554522168354 12.8166872882515 17.7908830616711 0.696490734762235 2.96740711868153 0.07463
0.07465 11.5464430244896 12.8012898371672 17.9338364053929 0.678619687658996 2.99951995993632 0.0746400000000001
0.07466 11.6201715320534 12.7005903282383 18.0196661944569 0.68203796819822 2.98672593812119 0.0746500000000001
0.07467 11.6848378454018 12.7632587548729 17.9329488290626 0.68730230249398 2.98054054342759 0.07466
0.07468 11.5168593653841 12.7388368167471 17.9222165964318 0.679731342066494 2.99406221147869 0.0746700000000001
0.07469 11.5074868163369 12.7491307729943 17.9732028665017 0.673409883361102 3.00121436148422 0.0746800000000001
0.0747 11.3372383391571 12.5760287599329 18.0836817580473 0.665786599190246 3.00324438366044 0.0746900000000002
0.07471 11.6542116149429 12.5754403531967 18.0201153105766 0.681865784662835 2.98814792831698 0.0747000000000001
0.07472 11.5726923721766 12.5385368908206 18.0125057843758 0.67503980295174 2.98353528993827 0.07471
0.07473 11.3899502488075 12.6666053061742 17.9961769648332 0.675998041553657 2.97329576313694 0.0747200000000001
0.07474 11.4038839241751 12.6820630807089 17.9526451181665 0.674566026231743 2.99553559276788 0.0747300000000001
0.07475 11.5849150511745 12.9008054569069 17.9918323052501 0.698014977550324 2.9877251028389 0.07474
0.07476 11.5959935456941 12.9732998511387 17.8437816788534 0.690448190727396 2.97284857340827 0.0747500000000001
0.07477 11.7854524297598 12.8811600125349 17.6641039116996 0.692518401898245 2.96736494616202 0.0747600000000001
0.07478 11.7145367611557 12.9845396242388 17.7735955596018 0.687310542796928 2.99355850593744 0.0747700000000001
0.07479 11.8447347600906 12.998527896394 17.8251339086306 0.708233903883897 2.95903217802553 0.0747800000000001
0.0748 11.7149755008169 12.9867050745899 17.8042189856939 0.688057707597402 2.9970290571247 0.07479
0.07481 11.8323446856964 12.8904368393322 17.8058930705902 0.703922241379052 2.97148487232438 0.0748000000000001
0.07482 11.5571197341285 13.0800366334044 17.7730013690138 0.69257781594326 2.98466129460587 0.0748100000000001
0.07483 11.7022650266202 12.795770582209 17.820938923914 0.684414191120014 2.99359712509378 0.07482
0.07484 11.5403233144787 12.6714966103962 17.9275493797468 0.68395843579529 2.99361412133743 0.0748300000000001
0.07485 11.4541527758892 12.7871886419888 17.9194645950076 0.673545428170501 3.0082083383995 0.0748400000000001
0.07486 11.3968893470121 12.7716734421029 18.1603738091684 0.680347232215787 3.00846718831801 0.0748500000000001
0.07487 11.3620482857277 12.8303932272653 18.0531362122628 0.676801841945165 3.01323332421766 0.0748600000000001
0.07488 11.5287516352299 12.7267547366049 17.9675190327044 0.681429233674534 2.99251447031269 0.07487
0.07489 11.7185169407145 12.7327390222311 18.0542332843451 0.680541261128238 2.99900008876288 0.0748800000000001
0.0749 11.6190738939679 12.5772251496567 18.1384786515019 0.677921165568032 3.00647828874174 0.0748900000000001
0.07491 11.457291762822 12.5844247903593 18.235877901768 0.683952500118145 2.99874982873858 0.0749
0.07492 11.5107230077753 12.6052838894154 17.9965687350444 0.67380987957024 2.99629663919179 0.0749100000000001
0.07493 11.7612696100113 12.8070571901492 17.9866695004105 0.691222170833552 2.99896308607433 0.0749200000000001
0.07494 11.9827848053975 12.9679916530298 17.7684432807963 0.70305165623613 2.97976386826574 0.0749300000000001
0.07495 11.8396231950022 13.0716542322491 17.7669998745217 0.694095166989778 3.00556735734301 0.0749400000000001
0.07496 11.862875823191 13.1207274107612 17.9061896656676 0.694395123090016 3.01475215753808 0.07495
0.07497 11.8171390497302 12.9427444315915 17.8510003844769 0.696333131115083 2.99422281003656 0.0749600000000001
0.07498 11.5675442026408 12.8001498921509 18.008084571275 0.683701622545322 2.98590834702479 0.0749700000000001
0.07499 11.7112895067458 12.9598865093212 17.9432920943603 0.696331238859581 2.99117144191144 0.0749800000000002
0.075 11.5814418426768 12.8263801382747 17.983259895894 0.673188537115177 3.00031351210755 0.0749900000000001
0.07501 11.4190287225848 12.9226986738117 18.0204273761374 0.687941389098173 2.98522388302072 0.0750000000000001
0.07502 11.5709092716033 12.82486397421 18.0396330524785 0.692859492090157 2.98973916757533 0.0750100000000001
0.07503 11.6672388768094 12.7242605558694 18.0014571734694 0.684109035017431 3.00733185913512 0.0750200000000001
0.07504 11.6797252413958 12.7800573260814 17.8894840159583 0.689937075568857 2.98225786404025 0.07503
0.07505 11.6460363676893 12.8923590307101 17.9806325868664 0.685924853472448 3.00604250199114 0.0750400000000001
0.07506 11.7049971928792 12.8865601548726 18.0059577807718 0.692971943636679 2.99853798218393 0.0750500000000001
0.07507 11.4906534107101 12.8138033598004 18.0583936541508 0.678209196674262 3.016758419811 0.0750600000000002
0.07508 11.6164960182648 12.8240557858316 18.1134817583667 0.685504000119773 3.02550778417453 0.0750700000000001
0.07509 11.4834790870413 12.6565923125299 18.1039210228786 0.685777096588755 3.01456626231388 0.07508
0.0751 11.543951125844 12.8819955609011 18.0275513219158 0.68713056272783 3.00597767004459 0.0750900000000001
0.07511 11.5696337184449 12.7993169992321 18.0313088772776 0.684388414666414 2.99887093665525 0.0751000000000001
0.07512 11.7955109668029 13.0053768152789 17.969122019871 0.703552258354997 2.97219810512216 0.07511
0.07513 11.7565331969267 13.0637097358143 17.7823565424958 0.690672746854818 2.97797949675773 0.0751200000000001
0.07514 11.9127862352211 13.1634807242141 17.8002540946213 0.712286748778119 2.97791850776412 0.0751300000000001
0.07515 12.0445677146242 13.1124826674427 17.8051716029048 0.699321554159591 3.01694157414763 0.0751400000000002
0.07516 11.8516790565473 13.039662310369 17.9283162455452 0.704378348851615 2.99074667531913 0.0751500000000001
0.07517 11.8048596455879 13.0934449313184 17.7743636870693 0.69928033496621 2.98796644477998 0.07516
0.07518 11.7917854598157 12.8434451246224 17.8389606393027 0.686372647534533 3.01833121180282 0.0751700000000001
0.07519 11.5312930766486 12.8845523017059 18.1237709166799 0.683706694347814 3.02435782274983 0.0751800000000001
0.0752 11.4919259408525 12.72025598122 17.9603036946467 0.680303719653189 2.98249646227331 0.07519
0.07521 11.5837957376005 12.8625650664514 18.0635689870613 0.683322707310927 3.00741432552415 0.0752000000000001
0.07522 11.3432722870537 12.86620963827 18.2187526655564 0.677055570244443 3.03236770447881 0.0752100000000001
0.07523 11.3364637554077 12.6859613305606 18.0815834276471 0.674692043766778 3.00055806047747 0.0752200000000001
0.07524 11.2556923409728 12.8535271906629 18.1590847533425 0.671012801930207 3.02736657460109 0.0752300000000001
0.07525 11.5793715192146 12.8798107296509 18.0331870106847 0.68700548351164 3.01398298132033 0.07524
0.07526 11.5108306075824 12.9509332418289 18.0048269271641 0.685457461772247 3.01268881054713 0.0752500000000001
0.07527 11.4988247248566 12.8663019324756 18.0639091389437 0.6775880973769 3.0304075293253 0.0752600000000001
0.07528 11.6705468491497 12.9207574687569 17.9817900779233 0.690309575988283 3.00286686879895 0.0752700000000002
0.07529 11.5622914227119 13.0155816034536 17.881083333721 0.692037584432901 2.99045216673652 0.0752800000000001
0.0753 11.6964877800516 12.7978069103643 18.0302674344407 0.682895657342339 3.01269933171528 0.0752900000000001
0.07531 11.7122513085589 12.9868737898165 17.9001961703351 0.697297745093843 2.99774612948497 0.0753000000000001
0.07532 11.666419337302 13.0778170995361 17.9532430028 0.68955380033984 3.00389107425697 0.0753100000000001
0.07533 11.8487902208572 13.0851529773563 17.8543892073988 0.700767671498956 2.99446938484009 0.07532
0.07534 11.8104331282667 13.0809948204349 17.7645550739748 0.697768522030304 2.99642659875756 0.0753300000000001
0.07535 11.9228378134724 13.1330650006529 17.7760982686529 0.70836090082094 2.99265143246337 0.0753400000000001
0.07536 11.643405389045 12.9338651512787 18.0105470432011 0.687812672041913 3.00639059981378 0.07535
0.07537 11.4604506724069 12.7854774814276 18.1305442174413 0.685296045168576 2.98853801342638 0.0753600000000001
0.07538 11.3741568876601 12.6845475797754 18.1069647781647 0.672145242091616 3.00736985694988 0.07537
0.07539 11.757715378159 13.0452051825269 18.0649887277098 0.700248613873215 3.01532299211271 0.0753800000000001
0.0754 11.5125760570993 12.9406024734585 18.0107485032671 0.68754531372233 3.00425487301704 0.0753900000000001
0.07541 11.5948117509258 13.0735227830681 18.0235019913756 0.683439906986629 3.02706350854795 0.0754
0.07542 11.7646773154896 12.9773678279468 17.9204834451179 0.707363669875427 2.98560138267278 0.0754100000000001
0.07543 11.6327465542049 12.8913889754511 17.9765291011193 0.683466906165395 3.0046293206082 0.0754200000000001
0.07544 11.8125245794845 13.0290130263427 18.0621445916313 0.701488846703244 3.00672963437126 0.0754300000000001
0.07545 11.8892247220698 12.9423773546865 17.9574104224932 0.700740651114825 2.98607924206943 0.0754400000000001
0.07546 11.8179519264328 13.0296976973778 17.9406064856882 0.697056473675427 2.98859220729209 0.07545
0.07547 11.7478706963212 13.0081086606466 18.0104157085705 0.689376293793146 3.02446614911074 0.0754600000000001
0.07548 11.8627786379548 13.1105359693017 17.9720861392452 0.697930598080513 3.00784411965605 0.0754700000000001
0.07549 11.4243651736045 13.0996371547819 18.0528625122112 0.689569438811931 3.02433325851084 0.07548
0.0755 11.6255083743068 13.0500019247105 18.0775676089791 0.691323717236691 3.03558885229402 0.0754900000000001
0.07551 11.5944004110194 12.9059494072354 18.0114978382039 0.690411786057863 2.99445960217222 0.0755000000000001
0.07552 11.6529890715059 12.8513329548003 17.9978696040517 0.687806339305878 3.00107478168597 0.0755100000000001
0.07553 11.5669771783095 12.8718943678989 18.0530457228743 0.687330960409338 3.02364062243667 0.0755200000000001
0.07554 11.5764788177386 12.8694078526677 18.1505176303109 0.674150174637704 3.0470298559383 0.07553
0.07555 11.8452659552953 12.8984306628656 18.104873775844 0.694071988242374 3.02422846697413 0.0755400000000001
0.07556 11.913502842586 12.9663125327211 17.912328656107 0.691202285076082 3.02009722799435 0.0755500000000001
0.07557 11.608446470339 12.8696455963534 18.0235962344349 0.67976876742885 3.01560005519211 0.0755600000000002
0.07558 11.6024273434935 12.8161851107009 18.1215779291966 0.681337186346349 3.02038899743684 0.0755700000000001
0.07559 11.8945559596246 12.9272563979 18.1005864537923 0.701875151928511 3.00848482156869 0.0755800000000001
0.0756 11.7601128109873 12.8119926503651 17.9967067187379 0.692995845454919 2.9955077163576 0.0755900000000001
0.07561 11.7810623701159 12.8066342154097 17.9766223852508 0.683788173107297 3.02290424980903 0.0756000000000001
0.07562 11.8397913847476 12.8590717164313 17.9958502573093 0.689467375402139 3.00268081636151 0.07561
0.07563 11.7685499011155 13.2730858032029 17.9502447176472 0.707090129060995 3.01222501788241 0.0756200000000001
0.07564 11.889473393222 13.0141233989199 18.0417849350268 0.697972273716312 3.02695432678966 0.0756300000000001
0.07565 11.8309307312871 12.9738014587556 18.1017637727249 0.692338575377823 3.03419236460108 0.07564
0.07566 11.6244624148863 13.0983436126406 18.067003594797 0.695301008466394 3.0210431587285 0.0756500000000001
0.07567 11.6845144691878 12.911488393092 18.0516570517686 0.68071025908123 3.03420164679235 0.0756600000000001
0.07568 11.7253062305304 13.1846273216751 18.088889555887 0.705695480612898 3.02145105328916 0.0756700000000001
0.07569 11.7200883971643 13.1194022459031 17.8714935472755 0.689702023264988 3.01008196723996 0.0756800000000001
0.0757 11.861909566371 13.1812502149905 17.9492766718092 0.70676776012397 3.00646462737091 0.07569
0.07571 11.7651141617425 12.9493431442261 18.2220492019303 0.695583582249756 3.03024726257747 0.0757000000000001
0.07572 11.743287684571 12.8663297285258 18.1952791816853 0.685432535059715 3.04387384976367 0.0757100000000001
0.07573 11.6935070271434 12.84889987613 18.1315671142634 0.687339872651365 3.01141889181109 0.0757200000000002
0.07574 11.7363371648932 12.9677964460583 18.124654379934 0.692776825571323 3.03049626776682 0.0757300000000001
0.07575 11.6992361604482 12.8303519328289 18.171057948967 0.689295880578698 3.03928073311772 0.0757400000000001
0.07576 11.7045817545341 13.0141648265432 18.0908373280206 0.698512811950035 3.01821265228763 0.0757500000000001
0.07577 11.7208908794256 12.9987185740363 18.1126241673754 0.693557816223264 3.02449540449139 0.0757600000000001
0.07578 11.6039035331151 12.8753043860163 18.2372163603062 0.687656071181067 3.03143016872739 0.07577
0.07579 11.8753313134524 13.1228786504341 17.9607035083798 0.704756045238965 3.00863276726882 0.0757800000000001
0.0758 11.9945617626979 13.1094635261701 17.968662117444 0.707784755985196 3.01646320585333 0.0757900000000001
0.07581 11.7383062867206 13.1131906913627 18.0427239267112 0.699425367127328 3.01934993861403 0.0758
0.07582 11.6740626586179 13.0569201846119 18.0694287181008 0.694367452205299 3.02627018479595 0.0758100000000001
0.07583 11.7563529844889 12.9833611689631 18.0966536024912 0.686390262470504 3.04540962502367 0.0758200000000001
0.07584 11.6469449575614 13.0083930138552 18.0914917756031 0.691621030449019 3.03062758651195 0.0758300000000001
0.07585 11.6382056783998 12.9020911890018 18.2486722689928 0.695268209499969 3.03985873160309 0.0758400000000001
0.07586 11.6550519565536 13.2063989509778 18.1503852690702 0.694124896472297 3.04235734705058 0.07585
0.07587 11.8252831377633 13.0262530732803 18.1032426719544 0.699475907635652 3.02805485438735 0.0758600000000001
0.07588 11.9406029827306 12.94589372045 18.0527545380686 0.694214900765194 3.02513991578675 0.0758700000000001
0.07589 11.6504866166138 12.9876937578424 18.1447526404431 0.689296167970087 3.03684157643339 0.0758800000000002
0.0759 11.7465762874753 12.8665377128535 18.081036956534 0.68881620185621 3.02055207735215 0.0758900000000001
0.07591 11.8681013208346 12.8772221296531 18.0583974584002 0.689440550628938 3.01355755644787 0.0759000000000001
0.07592 12.0269170748051 13.121294586879 18.0284263300842 0.704798870062544 3.0277545387684 0.0759100000000001
0.07593 11.9546432892598 13.2039575673957 18.0510679721916 0.704811258569298 3.03883696393166 0.0759200000000001
0.07594 11.8641470657699 13.0915193994618 18.0258181267443 0.696457487880506 3.02113322360384 0.07593
0.07595 12.0391073022812 13.0097094934478 18.0374079798077 0.702411416440733 3.01765498066258 0.0759400000000001
0.07596 11.8393010913076 13.0164443511494 18.0888888420385 0.700143774309612 3.01846248181852 0.0759500000000001
0.07597 11.6325590129066 12.9022146305028 18.2032165842633 0.681131802768722 3.05710885753787 0.0759600000000002
0.07598 11.8957509909912 13.0128957608687 18.0565993049583 0.704800881760672 2.9981835715654 0.0759700000000001
0.07599 11.7424876708183 13.1608732443116 18.1536065202371 0.698222408458204 3.04704130141947 0.07598
0.076 11.8457520009143 12.9901176800318 18.1897335500054 0.6996717019092 3.02050217001633 0.0759900000000001
0.07601 11.6547326490679 13.075476001361 18.1961754811414 0.690518048572937 3.00953111395132 0.0760000000000001
0.07602 11.7831325326608 13.0351340415037 18.1154429750856 0.697309866934308 3.03638568062077 0.07601
0.07603 11.8472385268335 13.1936183388492 17.9846537455554 0.702570474160688 3.00984646132571 0.0760200000000001
0.07604 11.9291340924421 13.1906912195924 17.9813274975447 0.702547504503358 3.02266855362442 0.0760300000000001
0.07605 12.0422506522523 13.2581413931458 18.1002400438943 0.707724329578746 3.04066914789159 0.0760400000000001
0.07606 11.9195525268229 13.0358790849021 18.138891338191 0.69532529136126 3.04352834204251 0.0760500000000001
0.07607 11.8988181632571 13.0880391139093 18.0680213004374 0.698940172154645 3.04917427978682 0.07606
0.07608 11.8884041536389 12.9106347622765 18.2407418309706 0.693923276158231 3.052162826802 0.0760700000000001
0.07609 11.9159004292849 13.0277409758867 18.3000270529005 0.701315670613832 3.04337534459925 0.0760800000000001
0.0761 11.6098664166277 12.7772316503007 18.277064605164 0.684257523263424 3.03610107827593 0.07609
0.07611 11.6016728169764 12.6064699794263 18.3730963168153 0.679174010770557 3.03758701789862 0.0761000000000001
0.07612 11.6762584182995 12.9167669999883 18.1865023200787 0.693893671835182 3.02547851134841 0.0761100000000001
0.07613 11.7834487753247 13.0018655222485 18.2409697892603 0.696305432791918 3.03924833594626 0.0761200000000001
0.07614 11.7567840659378 12.9940454269784 18.1009280018325 0.693334670350249 3.02898238273831 0.0761300000000001
0.07615 11.7421516997248 12.8725717383699 18.0987105883083 0.681395296631807 3.04658012155639 0.07614
0.07616 12.1100044968442 13.1586667987214 18.1626540547072 0.71244544609731 3.03996446957595 0.0761500000000001
0.07617 11.7048021461641 12.9490327390391 18.289431872783 0.692727277540885 3.03304806886107 0.0761600000000001
0.07618 11.9144615627204 13.1257752826352 18.1801319280607 0.699200880347243 3.04004341157984 0.0761700000000002
0.07619 12.0399688429548 13.0450164470421 17.99178829177 0.700641941860118 3.02947350307032 0.0761800000000001
0.0762 12.064884301346 13.1894666201919 17.9682373859423 0.710126005276801 3.02990667052558 0.07619
0.07621 11.7671266031508 13.1749875130829 18.1389792765301 0.709368712394362 3.01240085802405 0.0762000000000001
0.07622 11.9226268245767 13.2911578446112 18.0340898052643 0.711950058133548 3.02218523044717 0.0762100000000001
0.07623 12.1132104053347 12.9305033661419 17.9362230897689 0.703428846772895 3.01305439814455 0.07622
0.07624 12.0954150889722 13.1972901035187 17.9845878499439 0.708380316584199 3.03612884352393 0.0762300000000001
0.07625 11.8789051248064 12.9966825475796 18.2384289603943 0.70247261401193 3.0234326329959 0.0762400000000001
0.07626 11.8607917563537 12.9635166307661 18.204838212455 0.699886498248158 3.03614037684878 0.07625
0.07627 11.9587509366403 13.05394469973 18.1610711003284 0.701765850148852 3.03090897964785 0.0762600000000001
0.07628 11.9789801955558 12.9453481984678 18.1498406480281 0.696895039021986 3.03565639348287 0.07627
0.07629 11.9242362831021 12.863267147277 18.219865158798 0.700337579922648 3.02604782296764 0.0762800000000001
0.0763 11.882381189284 12.9499503250415 18.1791004931053 0.693359187769265 3.04641476943191 0.0762900000000001
0.07631 11.8592554943056 13.1000767276698 18.157028193619 0.700609628059049 3.03383165884419 0.0763
0.07632 11.948296405742 13.1255321847794 18.2010036869839 0.700812345191669 3.04313656774526 0.0763100000000001
0.07633 11.9277903585791 13.13243899359 18.1549692626524 0.698233374702119 3.0687287095828 0.0763200000000001
0.07634 11.6795005334763 13.0581678284967 18.1800471544025 0.696558956248712 3.04054703604346 0.0763300000000001
0.07635 11.7694901663709 12.920847029498 18.1762262727761 0.691151322344448 3.05006471156446 0.0763400000000001
0.07636 11.7215885278034 12.6602752546829 18.3636280160896 0.689155750701461 3.04518933370667 0.07635
0.07637 11.5518419978751 12.8560437568575 18.441355685775 0.680472946410014 3.06970515828829 0.0763600000000001
0.07638 11.943962248289 12.981133177223 18.276638861159 0.705534036155491 3.04610150461443 0.0763700000000001
0.07639 12.0408630151881 13.1293020762466 18.084315573303 0.711066200931361 3.02629389454034 0.07638
0.0764 12.0597732712216 13.2866650438688 18.2065637785194 0.710077932621016 3.05325569954023 0.0763900000000001
0.07641 11.9938936556656 12.9997073153461 18.2622391913348 0.695205361156995 3.04446987231278 0.0764000000000001
0.07642 11.7959300742615 12.9281703455384 18.3574504195499 0.696974968205524 3.04516401193187 0.0764100000000001
0.07643 11.9025134258782 13.2158420094873 18.230093899036 0.706688879018016 3.0663659621506 0.0764200000000001
0.07644 11.9668219117279 13.1344771195119 18.1337972202917 0.703206890316475 3.0399177280358 0.07643
0.07645 12.059804528863 13.1527423811769 18.3381887638158 0.707431045434542 3.05824987918061 0.0764400000000001
0.07646 11.8175866946224 13.0813234001632 18.2335139197891 0.699731518502616 3.03657257581112 0.0764500000000001
0.07647 11.7823654379231 12.9824027148653 18.1669829489593 0.701739422709081 3.02762927647491 0.07646
0.07648 11.8247008308977 13.2679930827637 18.148751897288 0.706394545032646 3.04089178821443 0.0764700000000001
0.07649 11.8057900472009 13.3039613472956 18.1003480615059 0.704381341501103 3.04486097021737 0.07648
0.0765 12.144522875498 13.2409227988061 18.0067308023646 0.713716984273792 3.0218325239525 0.0764900000000001
0.07651 11.9413324054521 13.2384427378454 18.0372512769783 0.708743903288867 3.03443950363586 0.0765000000000001
0.07652 11.9093476358349 13.3454943095465 18.2342550840115 0.706278819271567 3.06361795960082 0.07651
0.07653 11.9441285658208 13.1357952120184 18.1582101373371 0.704035586980396 3.03951883982838 0.0765200000000001
0.07654 12.1434549523534 13.186021054834 18.0686236959546 0.718156979670784 3.01918712927088 0.0765300000000001
0.07655 11.9029315792803 13.1418953779972 18.168979529973 0.70025145948587 3.04958880099504 0.07654
0.07656 11.8079312404984 13.2307958781563 18.328146928288 0.700054581112354 3.08150033234859 0.0765500000000001
0.07657 12.0502803538502 13.2045169287478 18.2391163697322 0.712974194395132 3.04215987225598 0.07656
0.07658 12.0438726113513 13.1603577191341 18.1566901437282 0.703792235889185 3.04950258977643 0.0765700000000001
0.07659 11.903976954139 12.9227499412785 18.3155930357695 0.701555251674555 3.04742341334869 0.0765800000000001
0.0766 12.0079020703445 12.8994598258806 18.3262901849706 0.687499149859242 3.06548945394219 0.07659
0.07661 12.0509301970436 13.1712741047171 18.2031807820991 0.711246335349702 3.04765810177918 0.0766000000000001
0.07662 11.9551453087984 13.1715075934095 18.2984210878418 0.715756508207339 3.03652454476982 0.0766100000000001
0.07663 11.7592473120428 12.8556962071911 18.4614324737958 0.676890664967887 3.09218417835033 0.0766200000000001
0.07664 11.7565904030016 12.8508156591678 18.4345504369296 0.693597328268315 3.04555335381748 0.0766300000000001
0.07665 11.9056885583274 12.9414445272164 18.3941050038574 0.697823460161832 3.05580750242236 0.07664
0.07666 11.9173029581751 12.9864578918108 18.3388451859148 0.695529312026352 3.06077250113188 0.0766500000000001
0.07667 11.9531462033643 13.0589151387221 18.2915725972006 0.696210647101536 3.05113267787611 0.0766600000000001
0.07668 12.0863532308437 13.0855317634242 18.2849216451073 0.69970917885755 3.06604842742722 0.07667
0.07669 12.0063920483558 13.1648719843813 18.220920123228 0.70710152025795 3.04531458443568 0.0766800000000001
0.0767 11.9713353871448 13.0981709195019 18.2152490542522 0.706866513701955 3.03099885857834 0.0766900000000001
0.07671 11.986839659408 13.3413939005108 18.1278961564084 0.701578143837087 3.0647300443502 0.0767000000000001
0.07672 12.0354217805649 13.2412976393673 18.132173685616 0.711523853517021 3.03244569011706 0.0767100000000001
0.07673 11.9391086000361 13.1357582707605 18.2286351317032 0.707417255823355 3.02725026169728 0.07672
0.07674 12.1814669528236 13.5237917137998 18.1022017732758 0.718584187742128 3.03563195428611 0.0767300000000001
0.07675 12.0606471914683 13.2995403491254 18.1276770504838 0.713201668947789 3.04180118931259 0.0767400000000001
0.07676 12.0778004903397 13.2589678932731 18.2561264207676 0.708017435576806 3.0789792730306 0.07675
0.07677 11.8866731874121 13.3675578717912 18.2403022829538 0.716666363019224 3.03305671370341 0.0767600000000001
0.07678 11.9952213115931 13.1635810689383 18.243088233966 0.698390503622595 3.06735875521493 0.0767700000000001
0.07679 11.8956166880438 13.0766474725897 18.3174722251697 0.701737188951274 3.06080507412787 0.0767800000000001
0.0768 11.7896950388391 13.1080638831878 18.3117859616652 0.698650413342096 3.06542737182423 0.0767900000000001
0.07681 11.9548913233857 13.0671250168243 18.3666146026261 0.704048457532301 3.05264479865825 0.0768
0.07682 11.8905410762331 13.077894514953 18.3269249461369 0.69788201933307 3.05754178761741 0.0768100000000001
0.07683 12.0577724705131 13.2113127155662 18.3300410826313 0.705982875605207 3.07661258582109 0.0768200000000001
0.07684 11.926326813776 13.049088673199 18.3047576884502 0.696936746634598 3.05373567771716 0.07683
0.07685 11.8305268414853 12.9735866150262 18.4812822840515 0.697217556347434 3.06280545412683 0.0768400000000001
0.07686 12.0400654659395 13.1005063621377 18.2893792454118 0.703476222091955 3.05891991815749 0.0768500000000001
0.07687 11.8995615429116 13.1807881513896 18.20847584217 0.704884229865105 3.06708058948012 0.0768600000000001
0.07688 11.851051945049 13.2521891008027 18.3078982438825 0.702795765559649 3.05642134001674 0.0768700000000001
0.07689 12.001253750965 13.2170724627584 18.2766796189831 0.709026368461477 3.06890659025936 0.07688
0.0769 11.8847208707679 13.0632866288 18.3805594819327 0.706412303382299 3.05703740295807 0.0768900000000001
0.07691 12.097514812642 13.1716933161215 18.3108491578139 0.709989981401419 3.06323480846832 0.0769000000000001
0.07692 12.0753817674982 13.1137612866371 18.2277676219703 0.709861065355106 3.03182964252756 0.0769100000000002
0.07693 12.0520046785529 13.2546227596905 18.2451834702496 0.709740122721023 3.06207598087575 0.0769200000000001
0.07694 12.181667240371 13.3282603366161 18.2419935882573 0.720243991228283 3.05126019602844 0.0769300000000001
0.07695 12.0615753800724 13.1470966812024 18.229253161218 0.708409056117634 3.05111016237839 0.0769400000000001
0.07696 11.7875279448935 12.976106390088 18.3876010972223 0.698222170611068 3.06342472350317 0.0769500000000001
0.07697 11.9423081691546 13.2581531048334 18.3399297078559 0.704885973293278 3.06718010508129 0.07696
0.07698 12.1198614628711 12.8661144396605 18.3878046328388 0.696075679217604 3.07844413252703 0.0769700000000001
0.07699 11.974434227767 13.1762416500782 18.4091221006718 0.698148548739558 3.08315642513147 0.0769800000000001
0.077 11.8521986159951 13.1407287791437 18.3674913577265 0.705835339082035 3.06799211803185 0.0769900000000002
0.07701 11.6993666272787 13.1856599816465 18.3478583211103 0.691977292165662 3.08497216074114 0.0770000000000001
0.07702 11.9644870333578 13.2578121136488 18.3270730492376 0.710108936759864 3.06990113817132 0.0770100000000001
0.07703 12.0018349421158 13.3907167539437 18.1999198559143 0.715764224011939 3.05331241140962 0.0770200000000001
0.07704 12.2581176290587 13.2914175925714 18.1994807984397 0.716223536928282 3.06550499474945 0.0770300000000001
0.07705 12.1122878208226 13.2559797276135 18.1820256925107 0.721629609596627 3.03671403846308 0.07704
0.07706 12.0762524304253 13.2799132272255 18.2302562859653 0.710016511974206 3.05180295449049 0.0770500000000001
0.07707 12.2552827065259 13.4198739968027 18.2293710174317 0.721323842804278 3.06111079458124 0.0770600000000001
0.07708 12.0632097047173 13.1092747138998 18.3370677616389 0.70718517301789 3.0609442704804 0.0770700000000002
0.07709 12.065294508538 13.1200943773887 18.2602006986045 0.709129184372277 3.05093043400834 0.0770800000000001
0.0771 12.015966066578 13.3832014060703 18.2067489460126 0.710503013631964 3.05526340843934 0.07709
0.07711 12.0342030713629 13.2741369917552 18.2787905529126 0.715746691081861 3.05881636575353 0.0771000000000001
0.07712 11.9298053477776 13.0189549810563 18.3591159696949 0.696015126651014 3.07405728643667 0.0771100000000001
0.07713 12.0614376532641 13.112852137006 18.4505096657235 0.700253032222631 3.0933930587858 0.07712
0.07714 12.1287262489832 13.220885713206 18.4106087534605 0.707507394076469 3.07905781328131 0.0771300000000001
0.07715 12.1092540786542 13.2098590639952 18.3976672076194 0.707033940031271 3.07721635890195 0.0771400000000001
0.07716 11.9306794502579 13.1718324653827 18.4700460022736 0.702199016431566 3.08453902537458 0.0771500000000001
0.07717 11.9768091122141 13.174587772014 18.3642565260911 0.701210479258645 3.0894563189304 0.0771600000000001
0.07718 11.8139953581985 12.8649099637891 18.4825201250077 0.685403262762036 3.07966046925627 0.07717
0.07719 11.7562564884753 12.8866914894533 18.6022271187381 0.690280827258269 3.09613964994606 0.0771800000000001
0.0772 12.1003161112208 13.2338574215144 18.4821359408356 0.713416412859798 3.06924526817191 0.0771900000000001
0.07721 12.0540085075762 13.1255945476947 18.3180770143734 0.710424609983192 3.05522320533448 0.0772000000000002
0.07722 12.1498753300294 13.1710074096366 18.3146880219176 0.712965560024385 3.05388305022114 0.0772100000000001
0.07723 12.0532787922742 13.241078477782 18.3469534893013 0.710710600758529 3.0716371782534 0.0772200000000001
0.07724 12.1477803945446 13.3547610834872 18.3176754207453 0.711653199292081 3.07406038418954 0.0772300000000001
0.07725 12.2156004149012 13.3124505092084 18.175289868021 0.713009053737111 3.06535444857769 0.0772400000000001
0.07726 12.2238857322344 13.484431472688 18.2309567837388 0.721139647638567 3.06863409985629 0.07725
0.07727 12.2277638734757 13.6363229511132 18.1872104133015 0.728576185678635 3.0632165799682 0.0772600000000001
0.07728 12.4527633632911 13.417880484596 18.1502722928073 0.725815189241076 3.05828385581883 0.0772700000000001
0.07729 12.3797759128504 13.2901977568833 18.2107020572302 0.71916833804492 3.06042637283339 0.0772800000000002
0.0773 12.0088757098951 13.2669112514512 18.3159788718665 0.708618243805748 3.06474498747162 0.0772900000000001
0.07731 11.9101920694897 13.1495394065964 18.5493552565103 0.696328187193682 3.09980022236922 0.0773
0.07732 12.0753597517304 13.2257828689218 18.4232786252528 0.705072994894854 3.09027492254931 0.0773100000000001
0.07733 11.9112690978612 13.0721590573549 18.4415733512681 0.702116045399714 3.07543147057406 0.0773200000000001
0.07734 11.9148368336275 13.1386311508424 18.5300124912519 0.694119388858328 3.1067690616773 0.07733
0.07735 11.7729667975561 13.1584067280774 18.5378722080162 0.700269726806023 3.08375416227963 0.0773400000000001
0.07736 11.755160699103 13.1393807273946 18.5709634372089 0.696988712507047 3.08181702920364 0.0773500000000001
0.07737 11.7759078772342 13.3158572954559 18.4470194070774 0.708336058567945 3.08663130502073 0.0773600000000002
0.07738 11.7968896632488 13.254970407238 18.424706362834 0.702725063586578 3.07729700342074 0.0773700000000001
0.07739 12.0851906559979 13.2017573290438 18.3946840673079 0.70410114321133 3.08420959187507 0.07738
0.0774 12.3372192118025 13.4321473687599 18.2839221931044 0.730225773317211 3.05312613870649 0.0773900000000001
0.07741 12.0701339970412 13.2652149077794 18.4174413595437 0.716410893060288 3.07822422101958 0.0774000000000001
0.07742 12.3747782286679 13.5031052517742 18.240480327333 0.721943124180467 3.09475472268044 0.07741
0.07743 12.3962127681084 13.5822473755259 18.0781197338859 0.73351050078423 3.04786033506654 0.0774200000000001
0.07744 12.430693529699 13.5629570004279 18.1659565314889 0.727883507156057 3.06610844323716 0.0774300000000001
0.07745 12.1835749445285 13.3450100332953 18.2483086317875 0.717467790486697 3.06959691325869 0.0774400000000001
0.07746 12.06310262503 13.2147140834334 18.3416266659935 0.708103890813198 3.07166073003317 0.0774500000000001
0.07747 12.2961982024092 13.4099744086052 18.284722939117 0.719474315066405 3.07697665526698 0.07746
0.07748 12.1540089990746 13.1166106072843 18.4586182763831 0.710200286524159 3.09437745360781 0.0774700000000001
0.07749 11.7234027037559 13.0281106994136 18.5755089728833 0.691946515072541 3.0974368167584 0.0774800000000001
0.0775 11.6994551056941 12.9476409258701 18.5763321857995 0.694248135196656 3.08429848078856 0.0774900000000002
0.07751 11.7521758904744 13.0876302915623 18.5762630931505 0.705939139177683 3.08356921803669 0.0775000000000001
0.07752 11.8630609226163 13.1176604829329 18.5442198050984 0.691684962908826 3.11945046086359 0.0775100000000001
0.07753 12.0728603611004 13.0107058443514 18.5229414990722 0.703327609906129 3.09324156269277 0.0775200000000001
0.07754 12.0342164276585 13.1326365666417 18.6344669900566 0.702481096733697 3.10293305695841 0.0775300000000001
0.07755 12.0463258922798 13.2777776957139 18.5096599191747 0.707119374319911 3.0975300824802 0.07754
0.07756 12.1800450583323 13.556644338322 18.3542696739798 0.722324255440534 3.08541793050962 0.0775500000000001
0.07757 12.1949261513068 13.5231621239427 18.3749938113652 0.711800826349773 3.11455123958859 0.0775600000000001
0.07758 12.2643618597565 13.4395919987939 18.3053391768504 0.728664639274773 3.05823557928559 0.07757
0.07759 12.4313095569004 13.4412863569895 18.3545569609927 0.727003976095919 3.07185750249136 0.0775800000000001
0.0776 12.2747433618747 13.5479562129942 18.2002740377352 0.719702340645506 3.07676324139825 0.0775900000000001
0.07761 12.28464435876 13.4420401096544 18.2304589814336 0.719328924969293 3.07648837619113 0.0776000000000001
0.07762 12.4695001384752 13.342686585723 18.3097801686146 0.722969694131889 3.08557869544825 0.0776100000000001
0.07763 12.2147840305747 13.505531110224 18.3066781023129 0.719014891081511 3.07588845217729 0.07762
0.07764 12.2654144222244 13.3158842254458 18.3649749921721 0.718570479653752 3.06903919017462 0.0776300000000001
0.07765 12.2222390343349 13.390899149802 18.3698532628707 0.718310162320674 3.07810097899639 0.0776400000000001
0.07766 11.9188829396184 13.3399252369618 18.4097664472836 0.698721069448867 3.09287332041658 0.0776500000000002
0.07767 11.8971312101762 13.036482981004 18.5980357632142 0.702583271828232 3.08943039709379 0.0776600000000001
0.07768 12.0161115124289 13.1219830659223 18.6048775003088 0.70286126125746 3.08766182076952 0.0776700000000001
0.07769 12.1383067535527 13.2522000533283 18.4754033264678 0.711849234915229 3.08629792429028 0.0776800000000001
0.0777 12.1801516087819 13.1353624733545 18.4375169853222 0.709332348783994 3.08233152971822 0.0776900000000001
0.07771 12.1259554355731 13.2671030639807 18.4904091405205 0.70634397268574 3.09933874735099 0.0777
0.07772 11.969663544563 13.3549182308583 18.5109970369138 0.704348641649143 3.10592904621024 0.0777100000000001
0.07773 12.1511721811955 13.2305417003981 18.430537149147 0.710681914327092 3.07505001107012 0.0777200000000001
0.07774 12.0769257966965 13.4316528882315 18.3623482167081 0.715539069622299 3.07270851922586 0.07773
0.07775 12.1909248680672 13.5109470769585 18.2974275411644 0.718248785721891 3.09358781396354 0.0777400000000001
0.07776 12.4487941341623 13.4417605338777 18.2308668533025 0.722991349048511 3.09029077242086 0.07775
0.07777 12.3030489666928 13.4772217099263 18.3028146815212 0.725181872323203 3.07221068683268 0.0777600000000001
0.07778 12.2494522150372 13.4513076474454 18.2988684392531 0.717030041279767 3.07109299422096 0.0777700000000001
0.07779 12.0502747887004 13.3294974232429 18.5411188260058 0.713752304078032 3.09639471600354 0.07778
0.0778 12.1090068077432 13.2509770964071 18.5825292188377 0.712988397263303 3.07514792086469 0.0777900000000001
0.07781 12.039716433917 13.3860705671243 18.5900798989542 0.714557418421769 3.09327529883439 0.0778000000000001
0.07782 11.8384587636663 13.3329026332314 18.6111758629581 0.713030565929189 3.10481396180773 0.0778100000000002
0.07783 12.0036984968839 13.3714040160168 18.5340718264472 0.712734069693566 3.09947733240934 0.0778200000000001
0.07784 12.1466949889871 13.32978225387 18.5917480320366 0.710521368165714 3.12782145946641 0.07783
0.07785 12.0537046216038 13.1157516754402 18.5949391904621 0.70152063993327 3.10918757823141 0.0778400000000001
0.07786 11.8618130227977 13.2749516541694 18.5304706124216 0.706294163836609 3.0971963254678 0.0778500000000001
0.07787 11.9824960364506 13.2927573368276 18.7299946797144 0.703182485225412 3.13478573155123 0.07786
0.07788 12.0743269743092 13.2911920586336 18.4996244954808 0.710072049803864 3.10104722207845 0.0778700000000001
0.07789 12.0804757623266 13.5409274757382 18.3801132714035 0.720173467455432 3.10215190701478 0.0778800000000001
0.0779 12.1217075732057 13.591708607376 18.389163859255 0.718496223989833 3.10404404421397 0.0778900000000002
0.07791 12.2573340582826 13.4698420774901 18.3908743823923 0.723929601717234 3.10437300885493 0.0779000000000001
0.07792 12.4851487716455 13.336695231743 18.3405406442843 0.719960009998287 3.08084196294723 0.07791
0.07793 12.5305824729904 13.7829929714809 18.2257197548564 0.737940750247661 3.09407583461083 0.0779200000000001
0.07794 12.4958314575825 13.5663451400899 18.2828813506978 0.737103498552054 3.08174292708033 0.0779300000000001
0.07795 12.4193615908991 13.4992833824565 18.3102878341596 0.724712442756478 3.09267544269711 0.07794
0.07796 12.4796855742673 13.6411181237761 18.2446805684832 0.733831466811769 3.08036975818181 0.0779500000000001
0.07797 12.2426076179399 13.628241148341 18.2627413889437 0.722526591435647 3.08421689421522 0.0779600000000001
0.07798 11.9568468180061 13.3959737432315 18.5867058340622 0.711853611387107 3.09714756950685 0.0779700000000002
0.07799 11.820029231882 12.9424786816663 18.7383642194508 0.691253875503003 3.12385188191151 0.0779800000000001
0.078 12.0235366138807 13.0691417805152 18.7088840960465 0.704780717735962 3.11531464033752 0.07799
0.07801 12.054173186572 13.1457309726055 18.6551361504644 0.707761146251649 3.09483302800454 0.0780000000000001
0.07802 12.0557394022437 13.198907756862 18.5677412230146 0.704333265887695 3.11500719224322 0.0780100000000001
0.07803 12.0425625373547 13.2076555143598 18.7090555329322 0.707522682589579 3.12255688291931 0.07802
0.07804 12.159495948151 13.1821641636066 18.653957009987 0.711824427735711 3.1067677825963 0.0780300000000001
0.07805 12.0779813280409 13.2759187483264 18.5283842629144 0.709558909103813 3.10341133005313 0.0780400000000001
0.07806 12.1846925421625 13.3277694868238 18.5450205854932 0.716043147722649 3.11258175391769 0.0780500000000001
0.07807 12.2010294345069 13.4362266602474 18.5385431377863 0.717160964022435 3.09930333118394 0.0780600000000001
0.07808 12.282188660914 13.5810110584889 18.4053318452773 0.724234837694991 3.11803431014835 0.07807
0.07809 12.0529484709756 13.3772620191726 18.466508900117 0.708812579343789 3.10943988139144 0.0780800000000001
0.0781 12.0835848022892 13.4871249562944 18.5201667689552 0.71356525655305 3.11430752221258 0.0780900000000001
0.07811 12.1443837697454 13.402035336456 18.578777889642 0.715695561664933 3.11120373975141 0.0781000000000002
0.07812 12.3789982623015 13.5228821362506 18.2860130392945 0.73079912569184 3.0862897990045 0.0781100000000001
0.07813 12.3283691051632 13.5734601132583 18.3577924231401 0.726555570324165 3.09268158432533 0.0781200000000001
0.07814 12.3408780526657 13.5190251002702 18.323785459905 0.726933366035019 3.09518830992768 0.0781300000000001
0.07815 12.3753790985554 13.5654562543176 18.3448801813579 0.728350530580217 3.08414124633776 0.0781400000000001
0.07816 12.2718777640282 13.427316461669 18.4241310785028 0.720958400825028 3.11453670665882 0.07815
0.07817 12.2295405662461 13.2546658399685 18.5416461331499 0.71917890830749 3.09376081933956 0.0781600000000001
0.07818 12.1654951178945 13.3133790128217 18.4875097120714 0.711842233710381 3.10065399440749 0.0781700000000001
0.07819 12.1427182954216 13.1651833398556 18.593576332387 0.71399423551879 3.1011499004951 0.0781800000000002
0.0782 12.1095966931401 13.3326086964639 18.5958354057072 0.707044883769614 3.12168811839671 0.0781900000000001
0.07821 12.1412855087419 13.2991900463876 18.6040645756984 0.709303199729207 3.12125712778823 0.0782
0.07822 12.1497299621115 13.3683807999185 18.6530306336721 0.715527321985714 3.11011413913614 0.0782100000000001
0.07823 12.2865899016346 13.3767625579478 18.5290918152882 0.724653909477416 3.09233951178889 0.0782200000000001
0.07824 12.342749599832 13.410083018072 18.5163296629192 0.722981496329553 3.1043893401798 0.07823
0.07825 12.3579507370708 13.5055583305557 18.4445671494049 0.718177397092447 3.10847117525562 0.0782400000000001
0.07826 12.3889017058199 13.5807521994225 18.4160547140048 0.729862739288446 3.0953510401294 0.0782500000000001
0.07827 12.4536790098647 13.5083570441293 18.5513162086435 0.72449826590265 3.09399761893091 0.0782600000000001
0.07828 12.2710214646222 13.4660159743704 18.5913828778059 0.721962390637713 3.10744772848967 0.0782700000000001
0.07829 12.2855955123198 13.4240163971872 18.4441114101931 0.720179878158969 3.08787565788351 0.07828
0.0783 12.3310789518064 13.3323408367466 18.5632270270539 0.728195333828258 3.0828027399776 0.0782900000000001
0.07831 12.3629286731524 13.5339956801039 18.5732043428292 0.724780691882089 3.10907019422576 0.0783000000000001
0.07832 12.3922661552902 13.5308368183837 18.5039773541723 0.728239988226332 3.10383182938758 0.07831
0.07833 12.2593329379869 13.4194471326753 18.4642935402918 0.709826568142987 3.11221027244899 0.0783200000000001
0.07834 12.3039428193093 13.530117805925 18.4558435170148 0.733416397677473 3.09134609042496 0.0783300000000001
0.07835 12.1546723080646 13.2115959809717 18.7258711015512 0.70478847887393 3.13443133058369 0.0783400000000001
0.07836 11.9918993707445 13.192965315839 18.7985025687741 0.7011358584315 3.13358479667507 0.0783500000000001
0.07837 11.9108388443539 13.2141548081568 18.8038567632729 0.712913506794024 3.11495929074608 0.07836
0.07838 12.1985256355534 13.1732878065571 18.6913609776995 0.708461647937769 3.1184310806359 0.0783700000000001
0.07839 12.2428596525004 13.5165031017815 18.6890580403906 0.733513105694997 3.11509842844946 0.0783800000000001
0.0784 12.1170999765594 13.5164755942532 18.6377725594041 0.724073492097214 3.10538227209772 0.0783900000000002
0.07841 12.301895491659 13.627654305661 18.4137248495621 0.735391683217384 3.08422637768867 0.0784000000000001
0.07842 12.4313469327134 13.6502325198271 18.3967724719054 0.746132429699327 3.07643945946492 0.07841
0.07843 12.3395016527683 13.7432081492241 18.2903615977929 0.728653847143911 3.10158514720631 0.0784200000000001
0.07844 12.2507653765079 13.5911023076132 18.4610095448678 0.72022499075889 3.11982950681699 0.0784300000000001
0.07845 12.3077325828887 13.7453957831481 18.4665286288853 0.729068094978131 3.11223661748565 0.07844
0.07846 12.26642745482 13.6541443572112 18.4540357984786 0.734768138289231 3.08970048044598 0.0784500000000001
0.07847 12.2649336120442 13.849266126291 18.5680036395467 0.736098372685638 3.11778574325771 0.0784600000000001
0.07848 12.2811367171531 13.631557722129 18.5831744157212 0.72362432956455 3.12363822445875 0.07847
0.07849 12.1645185146611 13.4260406256891 18.6360060485081 0.714467731544072 3.11493152060287 0.0784800000000001
0.0785 12.1779267507068 13.2525627225062 18.7883467304628 0.712529352691197 3.12715290533233 0.07849
0.07851 12.1845549884178 13.3682805511256 18.7409619693853 0.711043405795984 3.12554457034685 0.0785000000000001
0.07852 12.2985135300902 13.3196640146309 18.5802750159714 0.719478015654404 3.09642590671314 0.0785100000000001
0.07853 12.1739191432436 13.5193455394862 18.6946566579755 0.721939439681426 3.12711438692699 0.07852
0.07854 12.2556162855915 13.6061615713773 18.6265766861305 0.722085721685556 3.13881152754144 0.0785300000000001
0.07855 12.136960015808 13.3168063407541 18.7137206051617 0.714424458865621 3.12180405614014 0.0785400000000001
0.07856 12.2111459349136 13.3043803782868 18.7676329457423 0.712032171394119 3.14813182744847 0.0785500000000001
0.07857 12.2110051241034 13.368988914371 18.6954652625869 0.717463836696668 3.12611949669566 0.0785600000000001
0.07858 12.3202835550401 13.3333392003921 18.6298314013916 0.7140908379813 3.12079868730722 0.07857
0.07859 12.4744145873858 13.6474923447543 18.4929865531812 0.726759109342485 3.12359443568393 0.0785800000000001
0.0786 12.4502508298447 13.7087772267655 18.5407624073983 0.735818507903571 3.1094429498831 0.0785900000000001
0.07861 12.5471655035044 13.7316117805011 18.5090685641127 0.732521092359205 3.13089983900086 0.0786
0.07862 12.3530148651973 13.5619451767461 18.6048098387996 0.723232043068925 3.13111498089337 0.0786100000000001
0.07863 12.4063694332901 13.3797119579916 18.5930081585553 0.724170640180692 3.1154649893879 0.0786200000000001
0.07864 12.3131242521493 13.4198875605043 18.6586236156442 0.724805437214611 3.12423603098445 0.0786300000000001
0.07865 12.4759670536573 13.6724056064985 18.5483928872859 0.737064637505599 3.11825122675305 0.0786400000000001
0.07866 12.3913646740386 13.3896149299937 18.5977814040288 0.719775845068046 3.1192376300142 0.07865
0.07867 12.3900536714595 13.5097928040375 18.7049833041915 0.735085520946344 3.11491079700089 0.0786600000000001
0.07868 12.1859941960672 13.362485964186 18.7841048730648 0.715106067805401 3.13416121207527 0.0786700000000001
0.07869 12.0843894679891 13.2995008623445 18.7961568560861 0.710857466481347 3.12868794578576 0.0786800000000002
0.0787 12.2738316844887 13.6254867428266 18.6421915075793 0.728793337619959 3.13778639173012 0.0786900000000001
0.07871 12.3517258995307 13.5551706448973 18.7286684359808 0.732803809044414 3.12442703914291 0.0787000000000001
0.07872 12.473733299573 13.5568992169179 18.6088423874649 0.734509399396067 3.123173909372 0.0787100000000001
0.07873 12.2331457677616 13.4111549203926 18.675352262305 0.712688222884781 3.12092612458694 0.0787200000000001
0.07874 12.3320849384282 13.3168370752161 18.78729953693 0.7250535514231 3.13046779329946 0.07873
0.07875 12.3557550470091 13.618094760543 18.6987833483723 0.731381990492399 3.12665874281569 0.0787400000000001
0.07876 12.269791519201 13.7728345262727 18.5224025566112 0.727409648587452 3.13230877112317 0.0787500000000001
0.07877 12.3811981558165 13.6231877490944 18.5999824075444 0.730314655209955 3.12978383476033 0.07876
0.07878 12.5353101165189 13.7637475165676 18.4938407803051 0.736074080167488 3.12090070113901 0.0787700000000001
0.07879 12.6070912964484 13.7734267455087 18.545621292585 0.739788826694798 3.11664187505018 0.0787800000000001
0.0788 12.3538417165177 13.7182364197163 18.5658116539293 0.737443959954101 3.1133495840227 0.0787900000000001
0.07881 12.2962700643994 13.550028769091 18.5459398828047 0.722230678802363 3.12615571246551 0.0788000000000001
0.07882 12.4592446457322 13.725730749208 18.6195612097913 0.737069478741542 3.12087381858301 0.07881
0.07883 12.2900125474602 13.5145211183471 18.7239904625409 0.723983067398628 3.13911520234456 0.0788200000000001
0.07884 12.1597369412556 13.4356474727989 18.8183542882504 0.717911849954435 3.13680554860126 0.0788300000000001
0.07885 12.2039643519527 13.2712541603668 18.7519860729355 0.71078185405263 3.15223692259912 0.0788400000000002
0.07886 12.2817953399007 13.4845556810375 18.7160259065264 0.724027538280214 3.13367858158978 0.0788500000000001
0.07887 12.1759370711042 13.4696401815251 18.6705561343239 0.715855139324922 3.12640189762096 0.0788600000000001
0.07888 12.2315934711464 13.5278325129362 18.7663501651482 0.713583234666836 3.14831441179598 0.0788700000000001
0.07889 12.0526131577684 13.493200552983 18.7736612818712 0.715792633981657 3.13520454332302 0.0788800000000001
0.0789 12.2061017185237 13.4789158752022 18.77684759173 0.716702868367229 3.14388974908708 0.07889
0.07891 12.2744239599154 13.3605146014054 18.7345480561822 0.719478608565656 3.1305120088929 0.0789000000000001
0.07892 12.3944424564205 13.756661282513 18.612270493109 0.737298537655284 3.12243566379126 0.0789100000000001
0.07893 12.4850136890001 13.7724712511287 18.5469212824773 0.740052853905478 3.12136394730338 0.0789200000000002
0.07894 12.5495112105944 13.7718192489814 18.5041097346336 0.735794958112964 3.12334300550055 0.0789300000000001
0.07895 12.6340656906592 13.657164148262 18.503573306837 0.741731169273333 3.11718571276386 0.0789400000000001
0.07896 12.3850746995257 13.5273840127169 18.6843770644781 0.723449715307269 3.12885414534761 0.0789500000000001
0.07897 12.3719941140481 13.4657305817112 18.714597356037 0.72838488314939 3.1101533977529 0.0789600000000001
0.07898 12.3999695869767 13.516302085739 18.6929749874139 0.72946329405431 3.12618007357623 0.07897
0.07899 12.4437999701953 13.4966618693835 18.7093753028559 0.721586715653576 3.14942591732023 0.0789800000000001
0.079 12.2804601021889 13.5780604833295 18.6736058133416 0.725206516449596 3.12438241254047 0.0789900000000001
0.07901 12.274720095315 13.769431412613 18.6516988014517 0.723698176799703 3.14907417867192 0.0790000000000002
0.07902 12.2146165085186 13.5306984203609 18.6791838171333 0.724667031864851 3.12984697058759 0.0790100000000001
0.07903 12.3058628651671 13.6883266918632 18.7295386631808 0.729495587643207 3.1238151098398 0.07902
0.07904 12.2117214152965 13.485205076834 18.7100714940429 0.713763929055973 3.14629178397057 0.0790300000000001
0.07905 12.3670952269832 13.5492922267735 18.7040790739272 0.734187000104127 3.12326122333522 0.0790400000000001
0.07906 12.5366227562643 13.6203580180643 18.6205777562343 0.73257865980655 3.14021763575838 0.07905
0.07907 12.5072607001192 13.7890588530237 18.5779685157577 0.736481846705325 3.14838247025763 0.0790600000000001
0.07908 12.5361545192792 13.6643225120561 18.7107215965837 0.741156154951268 3.12061880368167 0.0790700000000001
0.07909 12.4475303127874 13.7576451734822 18.6281201885964 0.740528051957555 3.12204673531586 0.0790800000000002
0.0791 12.3563730698994 13.6835420486759 18.7036524357653 0.724402531180401 3.14071023139595 0.0790900000000001
0.07911 12.2961718565218 13.4898815040028 18.5991647718487 0.72549964535352 3.12372270281282 0.0791
0.07912 12.6366679429387 13.5240303550585 18.7088623050797 0.737389244785197 3.12183159350193 0.0791100000000001
0.07913 12.6918979428744 13.7815821037725 18.6821222895773 0.743107127716934 3.16129729291848 0.0791200000000001
0.07914 12.5292753496801 13.4863336101539 18.640582868655 0.731865768837463 3.14835522247301 0.0791300000000002
0.07915 12.4693424841155 13.5262812373262 18.7249423366236 0.733276339089741 3.1411244926921 0.0791400000000001
0.07916 12.3607974321762 13.5496247189784 18.6785035798535 0.730702594900168 3.11943975480508 0.0791500000000001
0.07917 12.265097521275 13.5729149138946 18.6107707877856 0.717946712214323 3.14122185976533 0.0791600000000001
0.07918 12.0329566983558 13.4701158785812 18.8296154886957 0.712523065845042 3.15202073396607 0.0791700000000001
0.07919 12.1362769968981 13.5767711779699 18.8061214662273 0.722892026542425 3.13136208362905 0.07918
0.0792 12.2524578868577 13.5391472988098 18.8500672686964 0.722188849244318 3.14272064826672 0.0791900000000001
0.07921 12.3664078886366 13.5215985184992 18.8193060793035 0.722920168936031 3.15542735957931 0.0792000000000001
0.07922 12.0791820951556 13.625617738721 18.7601724339602 0.71405156679817 3.16074066244526 0.0792100000000002
0.07923 12.3687614812518 13.6806245637918 18.6274639268387 0.735612407107551 3.13209694524732 0.0792200000000001
0.07924 12.4431571963024 13.8146965962183 18.6215572715518 0.741420526494786 3.12764799394029 0.0792300000000001
0.07925 12.536825817383 13.6994187314831 18.6906259952901 0.735237305772242 3.14755495135688 0.0792400000000001
0.07926 12.5099332977079 13.6812912647929 18.6719077339613 0.729456591726412 3.15578015124958 0.0792500000000001
0.07927 12.5106335198401 13.6321397859222 18.7624064988757 0.735541011762569 3.14789870959012 0.07926
0.07928 12.4956867645071 13.7854098504717 18.5007105800757 0.732782629748784 3.13263343284844 0.0792700000000001
0.07929 12.4826971139785 13.7849674117994 18.6896637296587 0.7316821194493 3.15542991622587 0.0792800000000001
0.0793 12.1945265997948 13.6063845926914 18.7763628014819 0.722430661807543 3.13668442159959 0.0792900000000002
0.07931 12.5743244186883 13.7875369186132 18.5486149845398 0.739012715146503 3.11815945759777 0.0793000000000001
0.07932 12.6413164079827 13.6805835376434 18.5799731338513 0.732944972455195 3.14531628434387 0.07931
0.07933 12.5995361325851 13.6851942360588 18.7294514691035 0.733684046652575 3.17165194928993 0.0793200000000001
0.07934 12.6552787568273 13.6087599995553 18.6975472916284 0.733257003350623 3.14203642372635 0.0793300000000001
0.07935 12.4846291378216 13.6665943659331 18.7592152322127 0.729309347898865 3.1658959447902 0.07934
0.07936 12.3797684357312 13.6216598068741 18.6738019762058 0.729222889119368 3.13696766824564 0.0793500000000001
0.07937 12.3398383399722 13.8311729442054 18.723676352849 0.731296673390638 3.16883726224902 0.0793600000000001
0.07938 12.3342958122467 13.6619143806297 18.8576976094511 0.727496250715439 3.16600017341867 0.0793700000000001
0.07939 12.2664815037636 13.5297640812932 18.8119969693693 0.723369379164422 3.15464906240885 0.0793800000000001
0.0794 12.4129251944683 13.7207612295658 18.6582778685961 0.735348385512825 3.13885900143193 0.07939
0.07941 12.4936801970188 13.732105077435 18.6319784213415 0.74013911944375 3.13593567324885 0.0794000000000001
0.07942 12.5415466354347 13.7376346133289 18.7512082619272 0.732845247589159 3.15710954481378 0.0794100000000001
0.07943 12.6194433278625 13.5801525849069 18.7749032248321 0.734066760884466 3.14490499589692 0.0794200000000002
0.07944 12.5140757541794 13.7365682549318 18.832436109976 0.736708188212424 3.15385933693806 0.0794300000000001
0.07945 12.380041478323 13.5832921700949 18.8674013077425 0.72695842819352 3.16889792486313 0.0794400000000001
0.07946 12.2017065222518 13.6490778632405 18.8458081984965 0.720496578516574 3.16768135886921 0.0794500000000001
0.07947 12.3093691248593 13.4779548665669 18.8374207424036 0.719862197912651 3.15757869701702 0.0794600000000001
0.07948 12.3645121808095 13.5725262406065 18.9461111923392 0.726958167926658 3.14989350066735 0.07947
0.07949 12.1813544108878 13.7207364573249 19.0121016638061 0.733020532697748 3.1536211486151 0.0794800000000001
0.0795 12.252349885832 13.6307136177641 18.8676534242843 0.72186363141443 3.1578474540276 0.0794900000000001
0.07951 12.4154437783109 13.6357887277729 18.8720891652625 0.737112506344561 3.1486297884871 0.0795
0.07952 12.3540101103016 13.5236279680339 18.7165907642023 0.733910549566983 3.12498830091677 0.0795100000000001
0.07953 12.6661102853156 13.7862908535155 18.6116643007129 0.742097486263186 3.15006320861042 0.0795200000000001
0.07954 12.9211638267386 14.0067608338421 18.6013763317992 0.749608027897616 3.17071031275588 0.0795300000000001
0.07955 12.761966061679 13.8017908721964 18.5970835273506 0.746125985526449 3.15007656821855 0.0795400000000001
0.07956 12.4464371092597 13.5560193201038 18.8066942836535 0.734882572250436 3.14826414362062 0.07955
0.07957 12.5222176835949 13.8516526291053 18.6600656752748 0.740177640589622 3.14131873638337 0.0795600000000001
0.07958 12.5645225152941 13.8067658597281 18.715255946688 0.736566188775866 3.15483399868043 0.0795700000000001
0.07959 12.4396787867928 13.7983436750179 18.8315695233735 0.735984706992051 3.15854589225308 0.0795800000000002
0.0796 12.7021896366433 13.7471773839497 18.6624400430583 0.73623143173538 3.15100490153521 0.0795900000000001
0.07961 12.7934163961609 14.0605668763821 18.5914423126256 0.754575689888623 3.1445311383459 0.0796
0.07962 12.7370121854677 13.8913560721675 18.6905072746006 0.747220292742044 3.152754452157 0.0796100000000001
0.07963 12.7461817088764 13.876605918595 18.8127635236701 0.749011805802841 3.15800300584192 0.0796200000000001
0.07964 12.3304046744601 13.4787248647862 18.9062457482579 0.719294291564368 3.16382559782424 0.07963
0.07965 12.3513182103047 13.6385687580399 18.9039371768533 0.731337805816087 3.14314356047555 0.0796400000000001
0.07966 12.3179555233671 13.5962555207941 18.8650643156216 0.725086401803436 3.16260388078585 0.0796500000000001
0.07967 12.2932828946444 13.3644252268218 19.0412148534764 0.717903509106658 3.16971566939137 0.07966
0.07968 12.4523812927488 13.6582350937887 18.8446663915681 0.732482552921858 3.15133032513919 0.0796700000000001
0.07969 12.6309273996635 13.7740472390535 18.8857378048717 0.746969852803232 3.169426335562 0.07968
0.0797 12.7043627535757 13.7072240350804 18.8408271360347 0.736077862542912 3.16786970506714 0.0796900000000001
0.07971 12.5464621632864 13.6746651887306 18.8611473930814 0.735994616582656 3.15758017743619 0.0797000000000001
0.07972 12.3164256158692 13.8052372490073 18.9558071721907 0.727295451767573 3.17669746832432 0.07971
0.07973 12.4191357082246 13.480564769169 18.8653347484697 0.72922224317261 3.14760081169451 0.0797200000000001
0.07974 12.5409456952814 13.6148154036965 18.9075110363405 0.732519460454547 3.14520724177071 0.0797300000000001
0.07975 12.6230241469443 14.0367131396995 18.6494917699589 0.750076178361212 3.15524902616537 0.0797400000000002
0.07976 12.623105175843 13.8174305108631 18.7349732155678 0.744451542126908 3.15758459326973 0.0797500000000001
0.07977 12.7612920086406 13.9375865032567 18.7143447230103 0.74571355527989 3.1607975472453 0.07976
0.07978 12.4923060893835 13.7145386451281 18.7884988124909 0.736183296788456 3.13453222831427 0.0797700000000001
0.07979 12.4610362563739 13.7392794084675 18.8838308701414 0.735553561606707 3.15621233621578 0.0797800000000001
0.0798 12.4858223798079 13.6356279637262 18.8168691270998 0.726457865143683 3.16424575619311 0.07979
0.07981 12.4059731612339 13.7251219868499 18.9270468532317 0.733184491533121 3.16387302151124 0.0798000000000001
0.07982 12.6903667811373 14.0037225261807 18.7457857627318 0.753295635001189 3.15449438308256 0.0798100000000001
0.07983 12.6713551209899 14.0442002752384 18.6978068039123 0.747119305580143 3.16430448286126 0.0798200000000002
0.07984 12.5656862260509 13.741552530675 18.795285482423 0.731110387614331 3.16744354516634 0.0798300000000001
0.07985 12.5653129729529 13.6314976497648 18.792269361404 0.732482856400795 3.1560195769188 0.07984
0.07986 12.5700195752946 13.5468212147447 18.9283779725515 0.73397648517919 3.15878524075211 0.0798500000000001
0.07987 12.5231344283076 13.7521836944834 18.885592789154 0.741048651309615 3.14117670514612 0.0798600000000001
0.07988 12.6130382384362 13.8122120605794 18.7877153376989 0.742753027842417 3.14886326681297 0.0798700000000002
0.07989 12.6795025424675 13.8339864861067 18.8477675545164 0.740787529589397 3.18114864891896 0.0798800000000001
0.0799 12.7730218628671 13.7351916672594 18.9929833570104 0.744007576596055 3.17856202097724 0.0798900000000001
0.07991 12.8144343770438 13.8584309549177 18.7831421216548 0.740186553877002 3.17436293523109 0.0799000000000002
0.07992 12.5896852408873 13.7842246513691 18.7843005514879 0.737708661660496 3.15555427496369 0.0799100000000001
0.07993 12.3289325739071 13.4191274400065 19.0136047666976 0.730585777113194 3.15033810485769 0.07992
0.07994 12.4682477780256 13.629432018856 18.8424581019939 0.735752348309166 3.13851892413648 0.0799300000000001
0.07995 12.5557202892538 13.8178075542698 18.8519618181445 0.735611894941428 3.18131864286252 0.0799400000000001
0.07996 12.5023571396856 13.8559899764754 18.8001648042935 0.737774220271357 3.17370142923782 0.07995
0.07997 12.5406735308178 13.8250275028577 18.9200964014287 0.746528941523115 3.1614616886383 0.0799600000000001
0.07998 12.5744871061705 13.7311993752416 18.9112895072906 0.741017937032904 3.18133157888629 0.0799700000000001
0.07999 12.3883629773642 13.7553105248417 18.9282778094495 0.732871083129929 3.17072078113801 0.0799800000000001
0.08 12.3109913809608 13.6935727820154 18.9345382836656 0.735234092924429 3.17075150031261 0.0799900000000001
0.08001 12.6014090505288 13.6213080898777 18.7994910793185 0.732061117205496 3.14630812520754 0.08
0.08002 12.6644588246828 14.0213262542932 18.8768168632369 0.746711813698265 3.17664455499655 0.0800100000000001
0.08003 12.6260942903226 13.9764474507133 18.672249613296 0.749083809121184 3.14611967339305 0.0800200000000001
0.08004 12.5913892493494 13.8822831612237 18.7917288450426 0.750112379958023 3.14774803989512 0.0800300000000002
0.08005 12.633525994296 13.9585226534072 18.7111070496302 0.748630636843661 3.1514638307838 0.0800400000000001
0.08006 12.6023424392708 13.7838485535912 18.8509392586604 0.740727003465789 3.16831812105404 0.0800500000000001
0.08007 12.6951350060168 13.7561603180159 18.804750470451 0.741274966368708 3.16833535774512 0.0800600000000001
0.08008 12.660885730424 13.8015656214046 18.8501203694084 0.741933775833265 3.16933381468975 0.0800700000000001
0.08009 12.4946821808136 13.7396416369135 18.8202167659503 0.741537136150568 3.15907870301787 0.08008
0.0801 12.626560179082 13.7791269370052 18.93911823578 0.735851330683684 3.18784488935264 0.0800900000000001
0.08011 12.7433883071482 13.8074930836552 18.8174888018297 0.745741914096097 3.1639071555761 0.0801000000000001
0.08012 12.6038547120611 13.6168716543971 18.9258540339951 0.728202358052672 3.1790238739382 0.0801100000000002
0.08013 12.5994715898105 13.6881116055737 18.9804290478003 0.737546743370379 3.170401965656 0.0801200000000001
0.08014 12.3967110169151 13.6771904572486 19.0316046742348 0.733789213402522 3.17424966198246 0.08013
0.08015 12.4859603842565 13.7868595915086 18.9417592619342 0.745780917376617 3.17583021180857 0.0801400000000001
0.08016 12.722804321243 13.8859675850178 18.9555423133187 0.743417263528038 3.18973275613361 0.0801500000000001
0.08017 12.6353550194105 13.7585023440605 18.8423379768692 0.732653079900158 3.18924152709431 0.0801600000000002
0.08018 12.534966141889 13.6600673855292 18.9385567111466 0.731925181037052 3.18364876484043 0.0801700000000001
0.08019 12.3896902492951 13.8581205287502 18.9871689984607 0.733454918759528 3.19383573494695 0.0801800000000001
0.0802 12.5312138455113 13.9223973755829 18.7829672557578 0.745784974453402 3.16067050791644 0.0801900000000002
0.08021 12.5649687935627 13.8107970881218 18.8782372190725 0.739076250411329 3.17792634421827 0.0802000000000001
0.08022 12.7074358599282 14.0328838176562 18.7633135390855 0.752915378346303 3.16469095675852 0.08021
0.08023 12.8296711176468 14.2521680093247 18.6663816331895 0.760981601010621 3.15924322792344 0.0802200000000001
0.08024 12.717749029006 14.1289441156603 18.8530184171074 0.750237356311601 3.18537797283343 0.0802300000000001
0.08025 12.6239479166188 13.7200382215815 18.8601559336789 0.737342570208867 3.17950378710886 0.08024
0.08026 12.4639822967747 13.689339778581 18.9858235351511 0.733619387552528 3.16977199818102 0.0802500000000001
0.08027 12.4919553290128 13.725758679527 18.9052527004323 0.738219969512178 3.1554010571217 0.0802600000000001
0.08028 12.522827048273 13.702271926315 18.9161178834653 0.728725830493633 3.17688378554603 0.0802700000000001
0.08029 12.6717708165217 13.9126519832663 18.8927601312298 0.750646053022287 3.17686615489728 0.0802800000000001
0.0803 12.6707518923215 14.1635590990511 18.81324659291 0.75137613930533 3.16470992993171 0.08029
0.08031 12.4991285788766 13.7715855603402 19.0705931277393 0.734381030435732 3.18997112503564 0.0803000000000001
0.08032 12.6201029946811 13.8886195612162 18.8909914341469 0.743056899469049 3.18287689597371 0.0803100000000001
0.08033 12.1840894750717 13.8069729156113 19.0996855324778 0.726311446828525 3.20270014235515 0.0803200000000002
0.08034 12.290480542992 13.402677772502 19.2092631978981 0.726000042432888 3.19278041508552 0.0803300000000001
0.08035 12.2890758136788 13.4317305454138 19.1225660587925 0.717687461280381 3.17951423959044 0.0803400000000001
0.08036 12.3888159031665 13.8257138311182 19.1036532855079 0.736847063600904 3.19793056699232 0.0803500000000001
0.08037 12.5010783150463 13.717586002994 19.0120896862624 0.731857597498712 3.1936382227221 0.0803600000000001
0.08038 12.750690712674 13.8298963778221 18.9016607950652 0.741985092615764 3.18437861156419 0.08037
0.08039 12.7740609750714 14.1651545551537 18.7816225268187 0.758721755319831 3.16353680055559 0.0803800000000001
0.0804 12.7169551431137 14.017133314561 18.7968388165604 0.748051331331349 3.18378765762286 0.0803900000000001
0.08041 12.7251440400316 13.9162227157573 18.9248565488112 0.752050843161011 3.17485690066235 0.0804000000000002
0.08042 12.5859223298982 13.8274096604338 18.9612031341706 0.740020049898478 3.1959470356263 0.0804100000000001
0.08043 12.7601205418709 13.9385559327488 18.8267025863553 0.747707401634545 3.17664464521191 0.08042
0.08044 12.7000584870627 13.997132981825 18.7365499864171 0.748981996706173 3.17569513916264 0.0804300000000001
0.08045 12.7843812651094 13.8819836307235 18.8765349002947 0.747119466009852 3.20123364484009 0.0804400000000001
0.08046 12.6507770725759 13.7542594644501 18.9739721867237 0.736618613664045 3.18963620808772 0.08045
0.08047 12.6932013512051 14.034889835024 18.8103221792289 0.748961955386466 3.17145588685751 0.0804600000000001
0.08048 12.554441482918 13.8198107684763 18.9932818598727 0.739801697373923 3.17895903476689 0.0804700000000001
0.08049 12.6066667832415 13.8194046286921 18.9584915850476 0.740291057737963 3.18202948585599 0.0804800000000001
0.0805 12.4948059656345 13.9447703004283 18.9115964774818 0.73548093992386 3.19804526786829 0.0804900000000001
0.08051 12.4095713016043 13.6901316145278 19.0312476327687 0.732330445118465 3.18829177065692 0.0805
0.08052 12.470569537031 13.738980835421 19.0835951313184 0.73114080056868 3.192004692717 0.0805100000000001
0.08053 12.5301113942166 13.7661823643688 19.0400025370438 0.740305624681832 3.18610675664767 0.0805200000000001
0.08054 12.6338497135405 13.6491130699248 19.1140730422759 0.732907132256225 3.18844212691427 0.08053
0.08055 12.6098968362576 13.5402940159718 19.1147658996531 0.734136866747504 3.19681660459968 0.0805400000000001
0.08056 12.7266660756495 13.7754558156623 19.0336781465717 0.744341894989615 3.19247210862715 0.0805500000000001
0.08057 12.8866341385074 13.9019512155911 18.9918023154496 0.747704009444865 3.21061996438488 0.0805600000000001
0.08058 12.7612140104172 13.9608671836295 18.8805366042092 0.749757593552933 3.1789521688642 0.0805700000000001
0.08059 12.7656485092947 14.0159495338176 18.8175543752518 0.748913394752149 3.17418195903401 0.08058
0.0806 12.7248910459514 14.0158870502588 18.8778142046034 0.75130240319222 3.17463116262204 0.0805900000000001
0.08061 12.6441856631891 13.8798492112056 19.0691934342456 0.742922635201782 3.19005200353465 0.0806000000000001
0.08062 12.6550159772072 14.0548379529293 18.9281506635408 0.751283890944404 3.19250657392784 0.0806100000000002
0.08063 12.5997772054698 13.9767818684839 18.8369998926533 0.74838537427318 3.18365854126269 0.0806200000000001
0.08064 12.7188902741626 13.9587633472545 18.8739784769306 0.746662539709128 3.19404875773723 0.0806300000000001
0.08065 12.746438715567 13.9130813867198 19.039736036881 0.745661911991729 3.21472600722157 0.0806400000000001
0.08066 12.7128289750758 13.9017196814542 18.9919703802428 0.743561616465821 3.19277964504778 0.0806500000000001
0.08067 12.5378315456276 13.7981054776705 19.0931629281507 0.745034350367496 3.16774028661919 0.08066
0.08068 12.5603180741993 13.6968211784266 19.1084147793105 0.739986742673836 3.19531331538517 0.0806700000000001
0.08069 12.5972726662749 13.8265471970642 19.1748415228366 0.740437529072215 3.20493229787004 0.0806800000000001
0.0807 12.489085880762 14.0056311571552 19.1057836232169 0.74061779835819 3.20101409561681 0.08069
0.08071 12.6363917722464 13.895716306552 19.0095002365951 0.739539965721113 3.18604334345284 0.0807000000000001
0.08072 12.7304014639334 13.948592153797 18.9593387121744 0.745210298894251 3.19065823256087 0.0807100000000001
0.08073 12.8127249116362 13.9540754463555 18.935098336496 0.749562958474899 3.17945213926148 0.0807200000000001
0.08074 12.8454216573309 14.2305312690409 18.9775060074991 0.758581354585213 3.20005014303696 0.0807300000000001
0.08075 12.7383431253466 14.0163676206 18.9707304572266 0.748895956221703 3.18978506446319 0.08074
0.08076 13.0017519583348 14.0719878642881 18.8264656275435 0.755473000958982 3.18266274115963 0.0807500000000001
0.08077 12.8552607143031 13.8355112496058 18.9094793001503 0.745773274103318 3.20087626592051 0.0807600000000001
0.08078 12.8893545087822 13.9463724649254 18.9222230584749 0.75213452154064 3.18655797231567 0.0807700000000002
0.08079 13.0057910969485 14.0371879171926 19.0794463311033 0.75733302177073 3.19838305256127 0.0807800000000001
0.0808 12.6370696912725 13.8640991898515 19.0396424483311 0.740151483912753 3.18695783791408 0.0807900000000001
0.08081 12.4846364406723 13.6983129111762 19.0723152534267 0.741470102890429 3.19108789899378 0.0808000000000001
0.08082 12.6134032274592 13.8421980146611 19.0923921470995 0.735470186391217 3.22146593569827 0.0808100000000001
0.08083 12.6664018065811 13.6907217350417 19.213711131592 0.739782308309339 3.20882330846163 0.08082
0.08084 12.6451963616346 14.0247031733014 19.1088671801585 0.75554699018932 3.2078480933312 0.0808300000000001
0.08085 12.5562922568024 13.7431159689752 19.0905443854434 0.735511412941237 3.2209393976027 0.0808400000000001
0.08086 12.5142262134498 13.8255979441408 19.2033156673091 0.743051696967397 3.20988046666076 0.08085
0.08087 12.4918208953739 13.8096768132742 19.126242290989 0.738566414257889 3.18884794962784 0.0808600000000001
0.08088 12.6104927552068 13.6255541795372 19.2473307237061 0.730411433915227 3.22526476955035 0.0808700000000001
0.08089 12.9012395554516 13.9741007345206 19.0177219336066 0.756433329638169 3.20881688740653 0.0808800000000001
0.0809 12.8483268043249 13.8776275066017 18.9209412102989 0.749375793580261 3.18564753870456 0.0808900000000001
0.08091 12.9184283431676 13.9979776869638 18.9062649755942 0.749126961577484 3.18977875734342 0.0809000000000002
0.08092 12.9564697109431 13.9640571976138 18.9410130657576 0.756592470369389 3.18420027747095 0.0809100000000001
0.08093 12.8958120704279 14.089565846813 19.0536101399205 0.756549536173954 3.19725087484017 0.0809200000000001
0.08094 12.8071570144312 13.9467154873121 18.9208418914467 0.743421155243822 3.19809677676359 0.0809300000000002
0.08095 12.7846846070515 14.1039581761217 19.0957255329737 0.75615269834237 3.20026635993902 0.0809400000000001
0.08096 12.6062822339513 14.0161732482964 19.107720173617 0.747094749843205 3.2125054128944 0.08095
0.08097 12.6567978844608 14.174554930366 19.092039513823 0.75049326441821 3.21737926342731 0.0809600000000001
0.08098 12.8421041872875 13.9771021513263 18.9225528866453 0.745653207980916 3.1983284276281 0.0809700000000001
0.08099 12.7372215445891 13.9313394607898 19.0342374156327 0.74384213289574 3.19809394529816 0.08098
0.081 12.7030957968287 14.0079343657962 19.1042715902887 0.74920795195334 3.20084169632444 0.0809900000000001
0.08101 12.7298950058207 14.2608696843259 18.9138975708961 0.753183920298552 3.20704363331575 0.0810000000000001
0.08102 12.6346401208273 14.1894496477844 18.9525771432718 0.748227385625479 3.21422092749566 0.0810100000000002
0.08103 12.5390611589293 14.0398405581796 19.0092316596881 0.747786892921034 3.21344385200684 0.0810200000000001
0.08104 12.665684644513 13.7981125199069 19.1906449639575 0.743081856571013 3.21390186169613 0.08103
0.08105 12.5596268169522 13.8865094837757 19.0842850950212 0.740042072272781 3.2015706829499 0.0810400000000001
0.08106 12.74332852343 14.1003490562203 19.0605778463266 0.75247109980392 3.20686487788855 0.0810500000000001
0.08107 12.8282183934279 13.9835557932101 19.065601674877 0.757431547325301 3.20547632902923 0.0810600000000002
0.08108 12.8403525631301 13.8600693048189 19.1033839796995 0.752202826906419 3.19907857387086 0.0810700000000001
0.08109 12.7937203396601 13.9875600746197 18.9768684924425 0.750776200315461 3.19977813704782 0.0810800000000001
0.0811 12.7628200732616 14.0295358513201 18.9169681941451 0.749783795498835 3.19768434576111 0.0810900000000001
0.08111 12.8458824870515 13.9584947975351 18.9580915908398 0.751602668880253 3.1896356993439 0.0811000000000001
0.08112 12.8910988932461 14.2074382915001 19.0342753400368 0.757763986119058 3.21897239932399 0.08111
0.08113 12.6965076884248 13.9741351070544 19.1165025041241 0.748078728350412 3.22373850454572 0.0811200000000001
0.08114 12.7800622253649 13.8495127749999 19.1198126480821 0.751648163650919 3.20896032017147 0.0811300000000001
0.08115 12.6297317994321 13.7285302584439 19.2208641459715 0.737334664955462 3.2336518305699 0.08114
0.08116 12.5531988378665 13.7919483073033 19.2246096122912 0.741013900689516 3.22065801525014 0.0811500000000001
0.08117 12.6647072234637 13.7412759241911 19.1143867926381 0.741210737161058 3.18954166883115 0.0811600000000001
0.08118 12.7072928845911 13.9642627717076 19.0993857401056 0.746220720652446 3.20164902208077 0.0811700000000001
0.08119 12.9524390193259 14.1225544693781 18.9121859446531 0.764691689724888 3.18687193474821 0.0811800000000001
0.0812 13.0378344425724 14.0579933810391 19.0514159256 0.759779481806405 3.19322397758602 0.08119
0.08121 12.9256917186772 14.1023999701157 18.9507424424202 0.761373670940855 3.18878273756637 0.0812000000000001
0.08122 12.8347976811092 14.0322448249388 18.9902321178848 0.747150447065477 3.21073973508906 0.0812100000000001
0.08123 12.9404319748879 13.8347022347505 18.9834891716024 0.755351147953227 3.18839114280555 0.0812200000000002
0.08124 13.0161145175979 14.0047851417181 19.0681057007955 0.768886579616172 3.18753779061695 0.0812300000000001
0.08125 12.7680753650558 14.088872837229 19.0726112115352 0.755642059619598 3.20309630984261 0.08124
0.08126 12.9751704217856 14.1017800094694 18.8144171281925 0.76664861034031 3.17445875231922 0.0812500000000001
0.08127 12.8141206767155 13.9791645155959 18.9108571807411 0.748874416882275 3.18998024030159 0.0812600000000001
0.08128 12.9394586119597 14.236528819293 19.1108295594733 0.757698140713425 3.22459885007327 0.08127
0.08129 12.701521040402 14.0689732074305 19.1536071135654 0.753027015066342 3.19080150532697 0.0812800000000001
0.0813 12.5473671164951 13.652217077123 19.1977080193525 0.732822598689637 3.21023780550653 0.0812900000000001
0.08131 12.6510335155303 13.8018901768099 19.1442783988183 0.737894148454129 3.20722694808792 0.0813
0.08132 12.7213848682264 13.9107283429026 19.0512546737995 0.750600861942699 3.19147570487619 0.0813100000000001
0.08133 12.8267040974839 14.0590254906906 18.9592701365422 0.744056586969982 3.21727204129412 0.08132
0.08134 12.6506829825247 13.9965388485769 19.1374464601389 0.749303648183234 3.21537761306873 0.0813300000000001
0.08135 12.9354235256458 14.1601399408986 19.0457280540248 0.755940390996438 3.21868199180101 0.0813400000000001
0.08136 12.7492405179782 14.0216899845468 19.125026917048 0.750507811759421 3.21429483986311 0.0813500000000002
0.08137 12.7609188762235 13.9215405182079 19.0752386590765 0.74531035198619 3.21748462604597 0.0813600000000001
0.08138 12.8653188294479 13.961907932259 19.139886295738 0.750996385113614 3.2368046937884 0.0813700000000001
0.08139 12.9399975674582 13.9831019728085 19.1075696096067 0.756209998558023 3.21668392460501 0.0813800000000001
0.0814 12.9219696876229 14.0013891036736 19.0896636194798 0.756610416378056 3.20513227593535 0.0813900000000001
0.08141 12.8977679832677 13.9524059310104 19.0442937787336 0.75706008455158 3.20096653702087 0.0814
0.08142 12.687978773732 13.7665296241588 19.116929392399 0.740848351662014 3.21882334934432 0.0814100000000001
0.08143 12.720535245512 13.7318692499846 19.1958234659011 0.73818124723964 3.21673812989902 0.0814200000000001
0.08144 12.773978007062 13.8961826483115 19.2418307673368 0.747678903503452 3.20424839178791 0.08143
0.08145 12.7802561608791 14.0022015686012 19.0298962624805 0.753348625484034 3.20315988449718 0.0814400000000001
0.08146 12.871814717218 13.8173987843565 19.0522552747751 0.741823870889281 3.22162695255661 0.0814500000000001
0.08147 12.8303543752805 14.1047323358974 19.2134362606978 0.75778691204987 3.22112871244018 0.0814600000000001
0.08148 12.7910955847517 14.0567295824336 19.0791450331811 0.751147664945465 3.2002501471558 0.0814700000000001
0.08149 12.801490465024 14.0327213306329 19.1009241761961 0.746843067252456 3.22073739990905 0.08148
0.0815 13.0723805142614 14.0455224420937 18.9633303865307 0.764460185409822 3.19023889115276 0.0814900000000001
0.08151 12.9481824554671 14.0562410505313 19.1700110852848 0.75810392872428 3.21271277299952 0.0815000000000001
0.08152 13.0732493462109 14.1769526308616 19.1018089077594 0.765440043740893 3.21320289118498 0.0815100000000002
0.08153 12.9995816009925 14.2813902038433 18.9362874354896 0.771152632354534 3.20005891913861 0.0815200000000001
0.08154 12.9848733679266 14.3676151778476 18.8853971934694 0.767704960991524 3.19093931466878 0.08153
0.08155 13.0527557214548 14.2153086477318 18.9799624487748 0.761651684889301 3.20930496197669 0.0815400000000001
0.08156 12.8966416641648 14.1291410618079 19.1116308691557 0.756413921170221 3.21418283617899 0.0815500000000001
0.08157 12.6484936628187 13.9100305398446 19.2124975844146 0.73756164162078 3.21989145478928 0.08156
0.08158 12.5094215018283 13.8309053612706 19.2656425256998 0.744121935963025 3.2148839660164 0.0815700000000001
0.08159 12.7532196341566 13.9211896975278 19.2517806919352 0.741441453920996 3.21976658236457 0.0815800000000001
0.0816 12.6590088295475 13.7743224345758 19.4610560720918 0.74130354977286 3.24633409265544 0.08159
0.08161 12.7617662540537 14.1030853527472 19.2939638647094 0.750204817722632 3.24846938815317 0.0816000000000001
0.08162 12.8483151131034 14.0847323249701 19.0735404977732 0.758302592969771 3.21450103373007 0.08161
0.08163 12.8352521879556 14.0952841319252 18.9783061842436 0.752596446457774 3.19791611060244 0.0816200000000001
0.08164 12.8006060716607 14.1085945434634 19.166348094104 0.757583856455946 3.22611198917548 0.0816300000000001
0.08165 12.840401030798 14.1209282825753 19.1557280679624 0.760496474587683 3.21438428116211 0.0816400000000002
0.08166 12.889758840878 14.1204799967314 19.1200137283176 0.751399100146799 3.23629849187584 0.0816500000000001
0.08167 13.0239192482967 14.051688465336 19.0546603629018 0.757308358763704 3.20944653028764 0.0816600000000001
0.08168 13.2548232923312 14.2855269288757 18.856429617245 0.776387715196984 3.1863841113792 0.0816700000000002
0.08169 13.0881048150554 14.2311802434025 19.0252885284678 0.76745579431087 3.2163154412159 0.0816800000000001
0.0817 12.9266356356658 14.0759518589844 19.0617292050414 0.75029232567756 3.23313245386911 0.08169
0.08171 12.6824239558762 13.9188493946964 19.1844288951946 0.753212609591071 3.19492356969229 0.0817000000000001
0.08172 12.7717056143976 14.008048241173 19.1939939516542 0.753423588413535 3.20731027979002 0.0817100000000001
0.08173 12.7728384489895 13.9484210995795 19.2416026996681 0.75226687822354 3.22881846451824 0.08172
0.08174 12.8236690717623 14.0367736708102 19.3395910676129 0.761141628259263 3.20607549710984 0.0817300000000001
0.08175 12.7751223969931 13.8136814130781 19.2161327778384 0.744721522836056 3.21732788564538 0.0817400000000001
0.08176 12.8692093602199 13.8021806778798 19.2520114141039 0.751354770887543 3.20394491411592 0.0817500000000002
0.08177 12.5923676985337 13.8381496427767 19.3492188118741 0.738123375896913 3.24028870628297 0.0817600000000001
0.08178 12.6632737730345 13.8506026426302 19.2836017172562 0.743291603076181 3.22568923126717 0.08177
0.08179 12.7381480197075 14.0825222585247 19.1435824203449 0.752145148950498 3.21442142644124 0.0817800000000001
0.0818 12.9043212155404 14.2193068012903 19.0472230703563 0.766762841863257 3.19399182312642 0.0817900000000001
0.08181 13.0576846702826 14.360011102293 19.0383378660545 0.766244332404306 3.22673176267727 0.0818000000000002
0.08182 13.1750066092628 14.4765697624438 18.9238713400621 0.774363430999066 3.21307695515992 0.0818100000000001
0.08183 13.0673198392669 14.258780502802 19.0792296569182 0.770137721281803 3.21460039233506 0.0818200000000001
0.08184 12.9853732330352 14.1720181408889 19.0885146943068 0.758459522914841 3.22241158118728 0.0818300000000001
0.08185 13.0273742129637 14.3006979135047 19.0898455511862 0.773137415116504 3.19812592668675 0.0818400000000001
0.08186 12.9204707934688 14.240329091227 19.094138009867 0.764327925989473 3.21568159662133 0.08185
0.08187 13.035604625498 14.1931433951362 19.1654398104343 0.762754193216385 3.22457881640652 0.0818600000000001
0.08188 12.8250967035643 14.1434176833738 19.2096653525287 0.760553597192685 3.21135803309186 0.0818700000000001
0.08189 12.876628333184 14.0979803096764 19.1643800506508 0.75563701261122 3.22376800850375 0.08188
0.0819 12.8602575185479 13.9564913691965 19.2594282124188 0.758356074021792 3.22061831653127 0.0818900000000001
0.08191 12.8265969665045 13.9832628243242 19.2540870364655 0.747268962036931 3.24798966270446 0.0819000000000001
0.08192 12.7737658789273 13.9877235999649 19.313412175125 0.749972291736197 3.22633858724845 0.0819100000000001
0.08193 12.7769184503835 13.6362378643234 19.3752244454038 0.7362282306789 3.24611782987129 0.0819200000000001
0.08194 12.7502629933969 13.8918024835849 19.3392912476507 0.748602873585752 3.22913313404053 0.08193
0.08195 12.9596685630285 13.9457076894247 19.2843275700199 0.758173036316904 3.21526123850849 0.0819400000000001
0.08196 12.9150014806326 13.9580916634131 19.2103250920081 0.762606277526858 3.20783611713104 0.0819500000000001
0.08197 12.9871105759912 14.1620145458934 19.1359841031046 0.76326064455764 3.22429064377444 0.0819600000000002
0.08198 13.0102393294037 14.1712492731624 19.0759901882403 0.76332451315518 3.23065176499284 0.0819700000000001
0.08199 13.0227858603172 14.101884740677 19.0550495740401 0.759888397049789 3.2225044267471 0.0819800000000001
0.082 13.1382370361595 14.3499537897734 19.0137230921736 0.772709288331819 3.22822836831286 0.0819900000000001
0.08201 13.0850218738019 14.3661725925616 18.9261589936243 0.766768009559119 3.22490835121605 0.0820000000000001
0.08202 13.0880733767025 14.2111037962034 19.1237144948894 0.763886538475541 3.23067191704138 0.08201
0.08203 12.899287187682 14.1888463488114 19.2295992202511 0.766884321738703 3.21040663331738 0.0820200000000001
0.08204 12.8478657641289 14.1563981162859 19.2392839936073 0.749881388899314 3.23282606570712 0.0820300000000001
0.08205 12.9393727089843 14.154000512304 19.316830190009 0.760414158556232 3.24384781388431 0.0820400000000002
0.08206 12.8388152272527 14.2429240746226 19.1976394791528 0.763038140720243 3.2213429731057 0.0820500000000001
0.08207 12.883499840348 14.1260735933694 19.2865138276236 0.765555544628986 3.23125461898529 0.08206
0.08208 12.7511136684232 14.0782209073776 19.2698527504618 0.752760583212805 3.23531003134489 0.0820700000000001
0.08209 12.7909047796468 14.077321844535 19.3890421035075 0.747867036465421 3.26344454700129 0.0820800000000001
0.0821 13.0990151619019 14.0447571454366 19.2812745051773 0.76438624257161 3.24903888901483 0.0820900000000002
0.08211 12.9315900576763 13.9176678652092 19.2763716482174 0.75022933640125 3.2452515809008 0.0821000000000001
0.08212 12.8327932195025 14.1175492791146 19.2941139222554 0.751768436343578 3.2585340484762 0.0821100000000001
0.08213 13.0099286442878 14.2379833586227 19.2640057422052 0.772035722962536 3.2265766344381 0.0821200000000002
0.08214 12.9030553857646 14.2309614340515 19.1564285003579 0.763374848140824 3.21954444942531 0.0821300000000001
0.08215 13.0058339561968 14.4103154318728 19.1183765920592 0.772373666383934 3.23348880642043 0.08214
0.08216 13.1199780371028 14.236756619034 19.1646475347825 0.765873121432563 3.23720721896988 0.0821500000000001
0.08217 12.9828840318841 14.1584148167591 19.2063493560288 0.763029238987238 3.21988171938377 0.0821600000000001
0.08218 12.9726383695994 14.3060858679658 19.2313320108261 0.764312285548209 3.2342194981771 0.08217
0.08219 12.9309682111265 14.2116502771666 19.2597395286413 0.762016238791048 3.23795733030199 0.0821800000000001
0.0822 13.0122167776998 14.2368856597882 19.307780053572 0.758554603873119 3.26540014727366 0.0821900000000001
0.08221 12.9777877504739 14.1234317983164 19.2398118138107 0.767891682521869 3.22117734012686 0.0822000000000001
0.08222 13.2182298664204 14.1495599639285 19.0360392894134 0.767624908906747 3.23431251120931 0.0822100000000001
0.08223 12.9602148470441 14.0222316652727 19.2704457675084 0.755828571564885 3.25457453288508 0.08222
0.08224 12.8612027519673 13.991930464228 19.3488002652123 0.75599323675391 3.24406101750204 0.0822300000000001
0.08225 12.8048281657018 14.1687410923939 19.2852380587442 0.755394581483444 3.25063434748814 0.0822400000000001
0.08226 12.6320665842327 13.9749695542442 19.3753114250077 0.746136852083852 3.25086719655287 0.0822500000000002
0.08227 12.7123881283005 14.0191756757251 19.5683856723147 0.745109973988889 3.27645920333825 0.0822600000000001
0.08228 12.9185467656797 13.9420382499181 19.3729284588255 0.754795498278343 3.21160200735069 0.0822700000000001
0.08229 12.8804941270921 13.9509854273686 19.4052606338756 0.754054125737131 3.25196477975971 0.0822800000000001
0.0823 12.9481143120735 14.1569082891333 19.3007243053651 0.758295984310424 3.25330714342852 0.0822900000000001
0.08231 12.7336226939579 14.0928876332947 19.3311935444353 0.761690978110976 3.22460445027074 0.0823
0.08232 13.1573108142081 14.3021137558024 19.1761943219643 0.77179744239049 3.23347819349239 0.0823100000000001
0.08233 13.1974004174405 14.2891823643996 19.1662542475631 0.776693050196767 3.23168669693604 0.0823200000000001
0.08234 13.3154729986933 14.4014245900786 19.0523853620432 0.782897092975448 3.21933669950209 0.0823300000000002
0.08235 13.3172256167558 14.5121336884117 19.0957086339321 0.783394179994138 3.2372319008065 0.0823400000000001
0.08236 13.4527931542414 14.556308251499 19.0243015190169 0.787762346506652 3.2439624463432 0.08235
0.08237 13.1047936369674 14.3162217624027 19.1879745772424 0.766196996377182 3.24224651095872 0.0823600000000001
0.08238 13.1043372482055 14.3671184045124 19.1008041388576 0.772097798347416 3.22396474167497 0.0823700000000001
0.08239 13.0445232869438 14.2310319383267 19.3051932341854 0.767748161385313 3.23717510883196 0.08238
0.0824 12.8041864387058 14.1091646386264 19.3682954126549 0.755790039183802 3.23468270881112 0.0823900000000001
0.08241 12.7038565382577 14.2832757534017 19.3119640832551 0.754871345989429 3.2482675826175 0.0824000000000001
0.08242 12.8402740591548 14.1676545572802 19.3386286235974 0.75570822416061 3.25702174597735 0.0824100000000001
0.08243 13.0779198627555 13.9940199372849 19.3576719386623 0.766143316814461 3.22880156991362 0.0824200000000001
0.08244 12.7724966169734 14.003563637904 19.5458969829029 0.753727364283682 3.24132522231693 0.08243
0.08245 12.6518580840586 13.76801918429 19.5683560379026 0.74289481662817 3.23192198413684 0.0824400000000001
0.08246 12.8487165355598 13.9871727182091 19.4797656931767 0.755308775268581 3.24316030800007 0.0824500000000001
0.08247 13.1463919587109 14.0943163283202 19.2901091999384 0.764252476547859 3.24587748218072 0.08246
0.08248 12.9687699067923 14.1762155581534 19.3354444004101 0.764417568900597 3.23941593014483 0.0824700000000001
0.08249 13.020032233747 14.2592096163695 19.2365566580723 0.758644420479398 3.2614525364598 0.0824800000000001
0.0825 13.1814979141089 14.4230467530622 19.035699733561 0.778247907779723 3.23269890535405 0.0824900000000001
0.08251 13.391604902827 14.4324948401328 19.0735486675018 0.779024026411796 3.2514211383204 0.0825000000000001
0.08252 13.1552035974507 14.4666124311074 19.2586799267281 0.778783335015347 3.25216664491183 0.08251
0.08253 13.2717307597029 14.1791137973219 19.2267248548126 0.772067940331699 3.24089668771059 0.0825200000000001
0.08254 13.172116002044 14.1513672536082 19.4129462294261 0.768543679983658 3.25823583480837 0.0825300000000001
0.08255 13.0326629646928 14.2165144100246 19.4682245250029 0.770516290463633 3.25813230754328 0.0825400000000002
0.08256 13.0172678043948 14.0599448606779 19.4157288078544 0.76334024345905 3.24047586403355 0.0825500000000001
0.08257 13.0003947167246 14.0573245876265 19.3534628387374 0.758536145862992 3.24496201815535 0.0825600000000001
0.08258 12.8246703568135 14.2467094537025 19.2927693954734 0.764735089245851 3.23233089492775 0.0825700000000001
0.08259 13.022501361028 14.321855158644 19.3219798676434 0.763155868582336 3.25046215757954 0.0825800000000001
0.0826 12.9774771270108 14.1346325199714 19.3027810347896 0.761497461650089 3.23987295125221 0.08259
0.08261 13.0557247056162 14.3428126884997 19.3041847617325 0.778786329836258 3.23692400985894 0.0826000000000001
0.08262 12.8468607217629 14.2737727167605 19.4549325578676 0.763077739710892 3.27061710159729 0.0826100000000001
0.08263 12.8595921139035 14.0854145564495 19.5503319597868 0.750171618754973 3.26799334575893 0.08262
0.08264 12.9353149806208 14.1397641296913 19.4218541705187 0.765294839487806 3.25431182414814 0.0826300000000001
0.08265 13.2366722503528 14.5407529115708 19.2125992007894 0.777069104654667 3.2522351296273 0.0826400000000001
0.08266 13.0891179342788 14.496954491743 19.1779699070765 0.766139143516746 3.26025136700498 0.0826500000000001
0.08267 13.1474806932437 14.3933535603321 19.2744807371068 0.766470423864505 3.26747532073526 0.0826600000000001
0.08268 13.1718530982117 14.4590562218979 19.1402104781955 0.787200173062404 3.22366945339561 0.08267
0.08269 13.1961938777563 14.5114939151127 19.1019075240016 0.773643068251428 3.26184328024163 0.0826800000000001
0.0827 13.2828966547114 14.538959708756 19.1424683616132 0.785235948916849 3.23529789885064 0.0826900000000001
0.08271 13.1511709378752 14.4390050627871 19.2699338105526 0.775681000793463 3.26090583269478 0.0827000000000002
0.08272 13.220363232619 14.2260196504627 19.1595934272929 0.762781380361881 3.26208172792588 0.0827100000000001
0.08273 12.9490888213721 14.13835170005 19.3763376173139 0.757112577785044 3.25954194178129 0.0827200000000001
0.08274 12.8130743354629 14.1954923943399 19.5168120828604 0.758268725995957 3.26586282147696 0.0827300000000001
0.08275 12.8708280005364 13.994340062384 19.4929979244169 0.747497180504746 3.26499492769157 0.0827400000000001
0.08276 12.7027129399735 13.9993608136696 19.5542246911156 0.735740977547346 3.29537278944693 0.08275
0.08277 13.0279207822616 14.0909457627468 19.369874607702 0.764878038505078 3.24597330695671 0.0827600000000001
0.08278 12.9939076168232 14.0933815766385 19.523382638472 0.759158108633148 3.27219127555949 0.0827700000000001
0.08279 12.7993674133452 13.8188632459872 19.5027809523756 0.749143558619589 3.25346554223638 0.08278
0.0828 13.0810347016295 14.0342346980555 19.4182494211996 0.757556193060001 3.26535768374077 0.0827900000000001
0.08281 13.2090335725632 14.2277568424046 19.4484353053165 0.773729867501122 3.25846638179053 0.0828000000000001
0.08282 13.0856639828859 14.3014767940938 19.3555913635557 0.769083759862771 3.23535454114382 0.0828100000000001
0.08283 13.1850822353425 14.5290052186692 19.2462808621072 0.776457567456139 3.25082988379302 0.0828200000000001
0.08284 13.3817525865211 14.5469354638318 19.2859535605308 0.78986625196436 3.25801084452207 0.0828300000000002
0.08285 13.2791783009792 14.4385249124793 19.1944603278082 0.780634920294139 3.25288073671989 0.0828400000000001
0.08286 13.2777739066465 14.5184555460058 19.1783693100223 0.7755482948596 3.26001197100283 0.0828500000000001
0.08287 13.2105904193269 14.5459309351565 19.2063861276812 0.773565897036331 3.26801541455904 0.0828600000000002
0.08288 13.08360724589 14.5907216505469 19.1346659421737 0.777146431208498 3.24483789257955 0.0828700000000001
0.08289 13.2849507097056 14.4357705326279 19.231911165516 0.777616196071601 3.2615596257756 0.0828800000000001
0.0829 13.0877353303324 14.313850803081 19.4627584674916 0.769019043977836 3.28131452708799 0.0828900000000001
0.08291 12.9609576172218 14.4133757728095 19.5225060606593 0.76453074620567 3.3008602189796 0.0829000000000001
0.08292 12.9627641139119 14.1250048129474 19.5079619623931 0.759210370940591 3.26131347260794 0.08291
0.08293 12.7590857377836 14.0786042670979 19.6584626143413 0.75933406945481 3.26866020318239 0.0829200000000001
0.08294 12.7259212820505 14.0029805382432 19.5634077044944 0.752341554375958 3.27458025944158 0.0829300000000001
0.08295 13.0224558452936 14.3792255250212 19.4370381201646 0.773400205168244 3.25840105159248 0.0829400000000002
0.08296 13.1321522315403 14.4669470822343 19.3193261982251 0.769150702949957 3.2690957591526 0.0829500000000001
0.08297 13.2194662144139 14.4172478922046 19.3166442671747 0.770231295235177 3.26462241312639 0.08296
0.08298 13.3027919637879 14.3832205385523 19.3992596257617 0.782657892099556 3.2611229332668 0.0829700000000001
0.08299 13.1109292651343 14.2247289810018 19.4943229129022 0.770491074610349 3.254163284963 0.0829800000000001
0.083 13.0377599934956 14.2531473926699 19.3855862592811 0.763117492770472 3.25475580525089 0.0829900000000002
0.08301 13.1033849432052 14.2737169256973 19.3138237180945 0.770548322828748 3.25108150538196 0.0830000000000001
0.08302 13.0646485496068 14.3631418390223 19.3742350180451 0.76208270089558 3.28773787270472 0.0830100000000001
0.08303 13.2348992590519 14.4206717403537 19.3401217187426 0.777529820125612 3.25855778548755 0.0830200000000001
0.08304 13.1806417184346 14.4079441803276 19.3033215068146 0.775407682317708 3.24689369864318 0.0830300000000001
0.08305 13.1198278220151 14.4849026685065 19.3332164317773 0.772728038496018 3.27913064819216 0.08304
0.08306 13.1495700167134 14.4086558584028 19.2636098021663 0.777025486216256 3.25631787997738 0.0830500000000001
0.08307 13.0794883737123 14.4153737665299 19.4052292904073 0.773976122399374 3.27289861449709 0.0830600000000001
0.08308 13.0279806981533 14.2944833807786 19.3938132752302 0.766601165168195 3.26311330062829 0.08307
0.08309 12.9224426369675 14.3786051212507 19.5347149006347 0.766040846062937 3.27997485492359 0.0830800000000001
0.0831 13.0020131504957 14.2293281741846 19.4906006711334 0.763207108866649 3.28282898247684 0.0830900000000001
0.08311 12.9264889856018 14.2181043493264 19.5609446505555 0.76922155664635 3.28051925684187 0.0831000000000001
0.08312 12.9858409973524 14.2032376230231 19.5651605561648 0.758765707710562 3.2931352800248 0.0831100000000001
0.08313 12.9253973946334 14.1068591523214 19.5735120103607 0.752077791064525 3.29210550492812 0.0831200000000002
0.08314 13.0912158954163 14.3084166930322 19.5403979800382 0.776349387022278 3.24910297614808 0.0831300000000001
0.08315 13.0910032820493 14.5133606814949 19.3413901719063 0.768474422724731 3.27599348329187 0.0831400000000001
0.08316 13.0096747216484 14.3200782759069 19.3654940225484 0.770206626798644 3.2470032275557 0.0831500000000002
0.08317 13.2594247377172 14.4484464517823 19.4079006395914 0.779361877406738 3.2682938666423 0.0831600000000001
0.08318 13.1946732549595 14.5706104305409 19.2574034055771 0.784913513835041 3.24856295416352 0.08317
0.08319 13.3279405863887 14.597238223651 19.2195437790724 0.786991206608629 3.25292196386488 0.0831800000000001
0.0832 13.2467700935152 14.2384805105713 19.3397904512338 0.772761283461987 3.25301522583728 0.0831900000000001
0.08321 13.1704056565495 14.3906226241051 19.3071795249663 0.776387687765744 3.24597097372678 0.0832
0.08322 13.1924638312347 14.4749329677625 19.4023604445924 0.774199497624201 3.28333383065245 0.0832100000000001
0.08323 13.2508128665111 14.4724828468046 19.441821330623 0.775652329794638 3.29585367992475 0.0832200000000001
0.08324 13.1826093439473 14.5612192981041 19.4478528961063 0.773754410894281 3.30217446703952 0.0832300000000002
0.08325 12.9557994108032 14.2717461245761 19.4544506338527 0.764751399296268 3.26308867574764 0.0832400000000001
0.08326 12.9957388224899 14.2497640226705 19.4521489039538 0.760042579578367 3.27690132174915 0.08325
0.08327 12.7850446019092 14.2824922945634 19.4922615461633 0.763472754809198 3.26668748648193 0.0832600000000001
0.08328 13.0359694593416 14.4692104568276 19.4380981145515 0.773836753557684 3.2802335878472 0.0832700000000001
0.08329 13.0962345094971 14.4511612228965 19.4473935308852 0.770632552879844 3.28582169407054 0.0832800000000002
0.0833 13.1613417386192 14.4470681535199 19.411075000804 0.777550769247577 3.27631372663783 0.0832900000000001
0.08331 13.2367279890971 14.3245968921213 19.3440997965001 0.774402584500507 3.26838067343818 0.0833000000000001
0.08332 13.2092951312244 14.5316801185494 19.3593929033211 0.780825955794571 3.2685805917769 0.0833100000000001
0.08333 13.2587239875836 14.5251073663026 19.4504995185928 0.777442234242084 3.28366773456729 0.0833200000000001
0.08334 13.2218749688072 14.3961079423991 19.4622304607551 0.77427063460746 3.2739561249742 0.08333
0.08335 13.0730390727272 14.4138463355371 19.5264997506576 0.773219296583969 3.28880160741948 0.0833400000000001
0.08336 13.1860790661257 14.3739980137913 19.4419707022347 0.767873800689821 3.29075956563658 0.0833500000000001
0.08337 13.1668330344824 14.2228243134743 19.575388569804 0.776722646768002 3.27878291422136 0.08336
0.08338 12.9642955570278 14.3143563446889 19.5876413396262 0.764566587893465 3.28185601592042 0.0833700000000001
0.08339 13.145431244305 14.5213132243355 19.3717743990518 0.772873630596803 3.27490812204439 0.0833800000000001
0.0834 13.0922673015765 14.5070546900396 19.4442479243395 0.778682696436666 3.26357534930821 0.0833900000000001
0.08341 13.0416557683853 14.5106933679429 19.5076472366082 0.775312684616641 3.27042939052358 0.0834000000000001
0.08342 13.1267926835594 14.3680331393819 19.5367401680045 0.771684552604521 3.28401504902987 0.08341
0.08343 12.9096439810796 14.2703261024183 19.5251187783121 0.772324199511065 3.28428195972824 0.0834200000000001
0.08344 13.1180289921098 14.3471769435626 19.5601501514484 0.765528866475514 3.3097562168447 0.0834300000000001
0.08345 13.2361647157176 14.4645670588375 19.5576828256065 0.774439498420281 3.30322795820329 0.0834400000000002
0.08346 13.1834542045407 14.2891939348582 19.4565922943175 0.764201570101192 3.29821684074553 0.0834500000000001
0.08347 13.2566856013034 14.5206480065435 19.4344443775881 0.779114084067281 3.28957211129939 0.08346
0.08348 13.2618352269468 14.6024272701582 19.3536557201166 0.78164199280742 3.2967382032237 0.0834700000000001
0.08349 13.3221019294085 14.6185954475268 19.3069527900508 0.788511817810961 3.26739058792233 0.0834800000000001
0.0835 13.4259577265254 14.7151458797971 19.201779290219 0.792064190944811 3.27221060859807 0.08349
0.08351 13.3007112087954 14.3707043092614 19.3618483349307 0.777270885983906 3.2567114796714 0.0835000000000001
0.08352 13.1925500826124 14.3532712542064 19.3358920877268 0.769573608547532 3.27205320102138 0.0835100000000001
0.08353 13.1895121392719 14.4794215957792 19.555593163012 0.775013647759411 3.29693125653149 0.0835200000000002
0.08354 13.2284968961632 14.5940462837046 19.3418968949962 0.776250269279723 3.29507941978942 0.0835300000000001
0.08355 13.2401600775622 14.3794937160407 19.4005175655585 0.779104963407414 3.27080546088478 0.08354
0.08356 13.1299776961466 14.3494493201908 19.5471432871916 0.757735296694475 3.31885895103893 0.0835500000000001
0.08357 13.2282473520536 14.4092545911245 19.5101460340515 0.774178410049474 3.28230430780002 0.0835600000000001
0.08358 13.2752634816228 14.3609797769158 19.4845183142328 0.777945015772277 3.27437736337859 0.0835700000000002
0.08359 13.2660483039389 14.4549705975948 19.5749150920161 0.773087105698889 3.2904815316761 0.0835800000000001
0.0836 13.25759860579 14.478056635834 19.5998188531975 0.772186233364551 3.30544901672507 0.0835900000000001
0.08361 13.1103973624967 14.2148765093789 19.643575785132 0.769334411647199 3.2855524598056 0.0836000000000001
0.08362 13.0810598428912 14.2489894319265 19.5996107131843 0.766169835932705 3.28675486613254 0.0836100000000001
0.08363 13.0853123251357 14.305012641522 19.6553833022626 0.764870422445403 3.31233204562245 0.08362
0.08364 13.1829720651332 14.2963179132491 19.5978885037836 0.765913846479643 3.28991827846568 0.0836300000000001
0.08365 13.3266076712058 14.4715215635895 19.390149601193 0.777904285270668 3.27025410665974 0.0836400000000001
0.08366 13.2551339775531 14.6818988785282 19.3686037822887 0.784096365669202 3.29195244104462 0.08365
0.08367 13.3611264655703 14.7631922607121 19.3960772828973 0.789562132382295 3.29744217688505 0.0836600000000001
0.08368 13.5325415805934 14.5443871332069 19.4249695393884 0.790167983605 3.28512424152075 0.0836700000000001
0.08369 13.3016158192427 14.6012856999542 19.4927673255581 0.777899858847042 3.30296745085036 0.0836800000000001
0.0837 13.0853732347712 14.4547943550036 19.511756899902 0.771018519096607 3.29264549402535 0.0836900000000001
0.08371 13.1691956137917 14.3793689723345 19.561869439374 0.773285942523804 3.28419600176774 0.0837
0.08372 13.0966044407534 14.2876406905782 19.5788482348567 0.765308635892684 3.29840107471118 0.0837100000000001
0.08373 13.1811282327212 14.4319699007414 19.5823885850401 0.774970661408613 3.29072911026473 0.0837200000000001
0.08374 13.1294299312872 14.3983378565637 19.6886803878479 0.779067618266947 3.30994005390592 0.0837300000000002
0.08375 13.2159650662919 14.4232882291236 19.6231221399469 0.773274310634707 3.30162883784287 0.0837400000000001
0.08376 13.4861031453245 14.502799293998 19.4565469714625 0.787308728536427 3.29428156256808 0.0837500000000001
0.08377 13.5450321935114 14.5246657406919 19.2871453321222 0.788770786729264 3.27086075501358 0.0837600000000001
0.08378 13.3620700783977 14.6949287973987 19.446664286298 0.781832635028047 3.30901196425677 0.0837700000000001
0.08379 13.248586058468 14.4614629812026 19.5495173266745 0.780727337081649 3.27973360408162 0.08378
0.0838 13.4056430775449 14.456555288737 19.5137826205799 0.785429916997352 3.28375415105838 0.0837900000000001
0.08381 13.2014362369083 14.5923866804285 19.4363097290551 0.772556986495333 3.3120415675224 0.0838000000000001
0.08382 13.2455053596375 14.5705246559387 19.5161643570202 0.784073103902647 3.30092146334152 0.08381
0.08383 13.2564203062748 14.533620888183 19.470106685446 0.782983357107686 3.27363698277391 0.0838200000000001
0.08384 13.3832401142945 14.5787262485472 19.3945566238173 0.779445823398869 3.28641221929319 0.0838300000000001
0.08385 13.5422658671633 14.7554093096684 19.4771258072337 0.789597369293318 3.30092967038292 0.0838400000000001
0.08386 13.2509876307136 14.4497498992478 19.6246333269882 0.768319205537759 3.29401421276299 0.0838500000000001
0.08387 13.3237298000488 14.3727294079014 19.6664686973765 0.782085811800997 3.28810827770004 0.08386
0.08388 13.1212994542142 14.3269426850891 19.6589937068106 0.762792617234951 3.29877357318793 0.0838700000000001
0.08389 13.1744425692081 14.3866137690724 19.6864207064103 0.77174315537363 3.30301644121533 0.0838800000000001
0.0839 13.0053072500309 14.1686530252419 19.8671121303248 0.763905867795977 3.30930752402303 0.0838900000000002
0.08391 12.9895570842323 14.114988619985 19.9050315984288 0.75863339732522 3.32263873044213 0.0839000000000001
0.08392 12.9933107591673 14.29652988368 19.6687158825664 0.765645738919425 3.29475882049868 0.0839100000000001
0.08393 13.1932222025259 14.539904840055 19.6490567343002 0.776594917409525 3.30474652548732 0.0839200000000001
0.08394 13.4668491326299 14.5401399353047 19.3722725707734 0.788163140356178 3.28458231606969 0.0839300000000001
0.08395 13.4521561156344 14.6657530846765 19.4814010030423 0.789589536768764 3.29072214557123 0.08394
0.08396 13.4023235955308 14.6206648206098 19.5378400944307 0.787990107908523 3.28962162076205 0.0839500000000001
0.08397 13.4613754825243 14.4820935535888 19.4741289547974 0.779569871224729 3.29372243508399 0.0839600000000001
0.08398 13.6677966630676 14.7269042176153 19.3800537324137 0.797132465611015 3.3019537347513 0.0839700000000002
0.08399 13.4925192698054 14.6912096657236 19.3955600804316 0.794653796505806 3.27683291973706 0.0839800000000001
0.084 13.3128113446722 14.6283256542016 19.53725641033 0.782318840464197 3.30952509217303 0.0839900000000001
0.08401 13.315536078325 14.7706441041332 19.5197960298004 0.785714483840974 3.30746624843317 0.0840000000000001
0.08402 13.2200163670098 14.5623234942437 19.697653069846 0.771677996210964 3.32487561372515 0.0840100000000001
0.08403 12.9233826328052 14.3644224829375 19.7309037243204 0.770568230864682 3.28494319937312 0.0840200000000002
0.08404 13.0236303388185 14.6504692873304 19.7246041612837 0.776538665707157 3.31315599216287 0.0840300000000001
0.08405 13.3185297878996 14.6987971005152 19.5619038123645 0.784807643613739 3.30125482460894 0.0840400000000001
0.08406 13.2364885359807 14.5147891877761 19.5228694630118 0.780838596814739 3.28648186707412 0.0840500000000002
0.08407 13.0729727183028 14.4786433390673 19.6489438222624 0.774658403516425 3.29427127481572 0.0840600000000001
0.08408 13.2428620519568 14.4407535762999 19.7059432480966 0.777075213810007 3.30322636508558 0.08407
0.08409 13.3557763057858 14.4378534159633 19.6260849154634 0.779672316301113 3.31249551003089 0.0840800000000001
0.0841 13.3510095631201 14.5003308608506 19.6230011393959 0.785058941738525 3.3076526249977 0.0840900000000001
0.08411 13.3570036476447 14.6479720016581 19.4840711386509 0.785007335222804 3.30730624214873 0.0841
0.08412 13.3360440258231 14.5017407312771 19.5817978158999 0.784057480973945 3.29518452752196 0.0841100000000001
0.08413 13.213605556447 14.4754312012085 19.6526575635139 0.778117115073538 3.29910364172884 0.0841200000000001
0.08414 13.3795261089586 14.6640515917387 19.477105907613 0.792864915741573 3.29572490104904 0.0841300000000001
0.08415 13.3537332796208 14.5275037094143 19.5261080709483 0.778169079480724 3.32502215242169 0.0841400000000001
0.08416 13.3717524125102 14.551520626516 19.6686753935781 0.788296227495437 3.31364700934873 0.08415
0.08417 13.3546685815547 14.574879585661 19.4964598495129 0.78797728676396 3.29926760393084 0.0841600000000001
0.08418 13.2351860413085 14.6155997589096 19.5053421518214 0.77515334607307 3.30052251896742 0.0841700000000001
0.08419 13.4286496752625 14.6955012773808 19.5114221886727 0.787757427658157 3.299402022563 0.0841800000000002
0.0842 13.2352470578601 14.5305008745886 19.6548152179795 0.779911408986203 3.31495739504393 0.0841900000000001
0.08421 13.1150555381727 14.492257145036 19.732793235545 0.775964173709903 3.30594030791323 0.0842000000000001
0.08422 13.2575944119139 14.4994375246411 19.6807183402717 0.782043663566231 3.30904155310603 0.0842100000000001
0.08423 13.337626465108 14.5247939776325 19.7183285267631 0.780365109668685 3.3225992771735 0.0842200000000001
0.08424 13.0923481781603 14.5099643468755 19.7481437556137 0.773516394036338 3.30546447833739 0.08423
0.08425 13.2346165263378 14.5928294531812 19.6819115744001 0.77225042831349 3.31497868300111 0.0842400000000001
0.08426 13.2697362576153 14.6087139373648 19.5788100870484 0.78825557773955 3.3088973091673 0.0842500000000001
0.08427 13.2418642389069 14.710517594823 19.5833301469504 0.782312462064177 3.31027404538866 0.0842600000000002
0.08428 13.1849780737644 14.5120487312692 19.7477917608192 0.77557204139247 3.3324190980991 0.0842700000000001
0.08429 13.3043233832551 14.7554979184201 19.5821210633586 0.782378413989494 3.32878479304998 0.08428
0.0843 13.4767184281923 14.6996925350041 19.5563027470342 0.787446099839417 3.29672713019353 0.0842900000000001
0.08431 13.4896926045737 14.6414687881583 19.4592663254668 0.788126003810745 3.29855125555766 0.0843000000000001
0.08432 13.5562755674393 14.6131148033377 19.5974831493171 0.789396477317466 3.30415146872626 0.08431
0.08433 13.442778543335 14.6624414540241 19.7059566878689 0.789328004343509 3.31115300218208 0.0843200000000001
0.08434 13.3784664579956 14.576012552623 19.7338752309912 0.782050358539779 3.31581014727161 0.0843300000000001
0.08435 13.3384644015614 14.5252392433165 19.7057993855274 0.783112852298503 3.32556837837638 0.0843400000000002
0.08436 13.5003707283321 14.7130420954242 19.4387946217999 0.790652390354666 3.30181327435148 0.0843500000000001
0.08437 13.4099288209633 14.8279947739837 19.4512580544167 0.788733759493254 3.31684316032398 0.08436
0.08438 13.3282960327973 14.6787530890648 19.6147460895854 0.787098086431529 3.31063935906598 0.0843700000000001
0.08439 13.1919077546136 14.5702154820686 19.6812429833057 0.7805145712198 3.31841247835224 0.0843800000000001
0.0844 13.1419269121847 14.433518941235 19.6409604811372 0.772378040496921 3.31068945046291 0.08439
0.08441 13.3046039955853 14.5268992488344 19.6679089767995 0.785501686310862 3.31987065248314 0.0844000000000001
0.08442 13.2807283342855 14.6521440339212 19.81750954989 0.780981210166264 3.3470394676581 0.0844100000000001
0.08443 13.2708332737859 14.5694718997201 19.8883468866768 0.777528040922902 3.33786848030912 0.0844200000000001
0.08444 13.4765449216515 14.6407682756865 19.6322260486163 0.795920969551135 3.30294499255594 0.0844300000000001
0.08445 13.4035883032669 14.8049680464878 19.5201521393555 0.789576412347225 3.30589181677997 0.08444
0.08446 13.2282451604039 14.6325497933968 19.6654900341223 0.788920347103415 3.31811333221825 0.0844500000000001
0.08447 13.4699606980557 14.7033715149357 19.5823830839976 0.781244794196995 3.33409089905228 0.0844600000000001
0.08448 13.5731645911713 14.7299359811671 19.4856540258525 0.79746365663944 3.30144042840377 0.0844700000000002
0.08449 13.3766842116227 14.5831602597629 19.6890751568202 0.78601878805483 3.31631687271969 0.0844800000000001
0.0845 13.3655469064116 14.7774222267968 19.5147692415529 0.788400703642586 3.32382180214835 0.0844900000000001
0.08451 13.3570068751343 14.6918121652048 19.782766168662 0.779031672943645 3.34932438189069 0.0845000000000001
0.08452 13.5287198453363 14.4655409649298 19.7540215241322 0.77924448706975 3.33146536785906 0.0845100000000001
0.08453 13.4001983337109 14.4052373910319 19.7569412028452 0.782224819303431 3.31046123114617 0.08452
0.08454 13.3640531600948 14.5553109961999 19.6706186175847 0.784757912884055 3.31456220183896 0.0845300000000001
0.08455 13.5208195186484 14.7337985907155 19.67266222659 0.798668524318524 3.31468521068929 0.0845400000000001
0.08456 13.2130044880278 14.5904668304656 19.7543794916694 0.777930868129055 3.32516604432131 0.08455
0.08457 13.4301779901913 14.5021074310551 19.7436354379747 0.784574888581867 3.31403191369164 0.0845600000000001
0.08458 13.4226518347632 14.7417246657694 19.6241072655531 0.788432882381046 3.31294506543854 0.0845700000000001
0.08459 13.4758131074653 14.6939702772848 19.7021176545759 0.787603480869096 3.32505359176215 0.0845800000000001
0.0846 13.358514390386 14.6238291677209 19.6769187709267 0.780398483386761 3.32695973430876 0.0845900000000001
0.08461 13.379879810554 14.5827130676645 19.6088106330549 0.785890597573765 3.30516653676409 0.0846
0.08462 13.408954641402 14.5678923029801 19.6638478841666 0.790807201191689 3.30393740191318 0.0846100000000001
0.08463 13.5027636469899 14.5897816154847 19.5636049755051 0.783913249433298 3.32496550040314 0.0846200000000001
0.08464 13.5148676167673 14.8323399600774 19.5434086895393 0.790681515620384 3.33312252883936 0.0846300000000002
0.08465 13.446218194405 14.7709943222413 19.6399365285993 0.793319132024505 3.31198443090095 0.0846400000000001
0.08466 13.2206296479035 14.687689727234 19.6923177361852 0.781494380834319 3.31595429613056 0.0846500000000001
0.08467 13.367265877524 14.8055468094311 19.6332870488315 0.792722428397521 3.3169229605558 0.0846600000000001
0.08468 13.4829386070547 14.7902038852867 19.6617116890121 0.796984534643092 3.31451578093838 0.0846700000000001
0.08469 13.6845702880058 14.7272573552672 19.6510202975297 0.791443048470923 3.33547207591638 0.08468
0.0847 13.416009309791 14.7150092566744 19.6726787280582 0.79579287926384 3.30912304986511 0.0846900000000001
0.08471 13.5091052109942 14.6288775912797 19.7302893824969 0.786365201154439 3.33232904191332 0.0847000000000001
0.08472 13.519586234464 14.9098092673681 19.6968679636063 0.803194836215469 3.34451651176294 0.08471
0.08473 13.220259876334 14.5068727935833 19.8731849533422 0.776054767649931 3.34427110052887 0.0847200000000001
0.08474 13.1338207424121 14.4208941507284 19.885067963215 0.767169501712952 3.33351875647448 0.0847300000000001
0.08475 13.2590063859457 14.6918978687448 19.839607725649 0.788143021576228 3.33930672663646 0.0847400000000001
0.08476 13.2411599752277 14.3259220553979 19.8536088994821 0.768880282692035 3.34444077569598 0.0847500000000001
0.08477 13.3245844832542 14.3559382125618 19.9098287026484 0.779860459027458 3.3091527707524 0.0847600000000002
0.08478 13.3541121125713 14.4436722295655 19.8030244087657 0.784734924101825 3.30308286951185 0.0847700000000001
0.08479 13.3324128265045 14.6015191748528 19.8201812721544 0.775221622334862 3.33815038982824 0.0847800000000001
0.0848 13.7912634874887 14.769261303222 19.6372633986739 0.805165823071725 3.32775504446962 0.0847900000000002
0.08481 13.704047918856 14.7478150097339 19.5476668083674 0.802195369634432 3.31701469988319 0.0848000000000001
0.08482 13.8715377999933 15.0244923764762 19.3854074454001 0.816071093141648 3.31013198111192 0.08481
0.08483 13.784707317246 15.0026499188803 19.4901527238978 0.805074170480487 3.3323597924857 0.0848200000000001
0.08484 13.5870980328744 14.8103369514944 19.6371774554159 0.797254504776591 3.323794487896 0.0848300000000001
0.08485 13.4955534918406 14.6626871755033 19.636759814537 0.782092058172663 3.33373714377015 0.08484
0.08486 13.3546735277499 14.4839455491475 19.8937427859296 0.786892442976098 3.32230786392744 0.0848500000000001
0.08487 13.2738151364608 14.7501722562271 19.8077662382749 0.782387946240158 3.32483692499633 0.0848600000000001
0.08488 13.2198870618172 14.5881707227016 19.8041838069727 0.775345672526775 3.32669246375087 0.0848700000000002
0.08489 13.2311523427905 14.6694057079901 19.9309096878267 0.780836832171307 3.35547280987236 0.0848800000000001
0.0849 13.1511176078113 14.6660667000935 19.8332519606158 0.781694701333289 3.34621774614888 0.08489
0.08491 13.3799803470894 14.6891967411772 19.8111161714461 0.784548667325735 3.33874582601199 0.0849000000000001
0.08492 13.4476819635294 14.6765083009929 19.6753183014272 0.795373470817256 3.31863927557015 0.0849100000000001
0.08493 13.5995920125732 15.0083511731889 19.692683080408 0.801439425195639 3.34489133937187 0.0849200000000002
0.08494 13.5569989684852 14.8324232192483 19.6170166154298 0.790767939441864 3.33393638050395 0.0849300000000001
0.08495 13.6316967723994 14.8710148774007 19.6291444538245 0.798533697532775 3.31024590891078 0.0849400000000001
0.08496 13.4031653386283 14.7939263029226 19.779577533214 0.786648163612773 3.35285558590933 0.0849500000000002
0.08497 13.4333943740918 14.7531623217659 19.799204335371 0.787289364110471 3.34376109877369 0.0849600000000001
0.08498 13.5688081984776 14.8383220857477 19.7086102931714 0.795173390551127 3.3209118537257 0.08497
0.08499 13.5321131917128 14.6493087054249 19.7035269325853 0.789175239258675 3.34163569340391 0.0849800000000001
0.085 13.5592911217043 14.4214437052567 19.7448399365941 0.782625209435112 3.33636412596034 0.0849900000000001
0.08501 13.4187669656106 14.5263385275128 19.8667494011386 0.780940575526011 3.34719202983646 0.085
0.08502 13.249016061955 14.5913776052284 19.8554265233369 0.777285864130411 3.34692767899354 0.0850100000000001
0.08503 13.3269211587198 14.3761120106463 19.8078269070766 0.779577036546858 3.31992824003158 0.0850200000000001
0.08504 13.553882876521 14.6389112378303 19.8615748459612 0.786333901871249 3.35832405084036 0.0850300000000001
0.08505 13.3950080471118 14.8157553327645 19.7536658773545 0.792687014469747 3.34116435210778 0.0850400000000001
0.08506 13.3888989790886 14.5787472676622 19.8373653366492 0.788506682565708 3.32386502973009 0.0850500000000002
0.08507 13.5869253115845 14.7978286688966 19.7189514005733 0.792131269401176 3.32674230158318 0.0850600000000001
0.08508 13.6988834607162 14.8858612983119 19.6603843242301 0.803669221508776 3.33006064999248 0.0850700000000001
0.08509 13.4515224188776 14.7784637581972 19.7922699499439 0.790256637298624 3.34923695343936 0.0850800000000002
0.0851 13.5489717436919 14.68766240168 19.7830040003952 0.794339006769216 3.35572685176212 0.0850900000000001
0.08511 13.3597964036521 14.5755458927494 19.6374029352488 0.787135433375219 3.30777839356197 0.0851000000000001
0.08512 13.4732630116412 14.7092922060447 19.5989568529825 0.791713743473807 3.3112543609648 0.0851100000000001
0.08513 13.6828989813326 14.7839275835005 19.5773738058908 0.794456372933288 3.31773866641727 0.0851200000000001
0.08514 13.6279928290961 15.0035855693152 19.633103578647 0.809161452891039 3.31681091646369 0.08513
0.08515 13.6552962791405 14.8456272620599 19.7795012551538 0.794414500326201 3.33703696827421 0.0851400000000001
0.08516 13.4801259526588 14.8253904542932 19.810783980855 0.793712944734072 3.32382390016267 0.0851500000000001
0.08517 13.5193412656642 14.9054833202083 19.8405887545233 0.794512474222237 3.34822109268425 0.0851600000000002
0.08518 13.2712317124789 14.9462571136094 19.8331527868719 0.78810886254934 3.34411605599368 0.0851700000000001
0.08519 13.6346490704043 14.7973485307244 19.72961855229 0.799374704629433 3.34059267310104 0.08518
0.0852 13.5515277492569 14.9394448927357 19.6885920918798 0.800315493366025 3.32770437068131 0.0851900000000001
0.08521 13.6947293990593 14.8869180200787 19.7527993753888 0.791027647300101 3.3637458032504 0.0852000000000001
0.08522 13.5396509916713 14.8285591273619 19.7458628805742 0.799988583834365 3.33160439032055 0.0852100000000002
0.08523 13.3975408024405 14.6808071362069 19.8702162497306 0.789019188003155 3.32083323324632 0.0852200000000001
0.08524 13.1827359033838 14.6360316893645 19.950388067951 0.77969286641428 3.34148000686038 0.0852300000000001
0.08525 13.3529372105086 14.7342405175559 19.9100952815535 0.790143069752 3.35281057163583 0.0852400000000001
0.08526 13.4991533726468 14.6610779197134 19.971254964391 0.800194717618826 3.3383607200822 0.0852500000000001
0.08527 13.3717288608542 14.6975345719697 19.7851696631736 0.785753083865467 3.33668385914351 0.08526
0.08528 13.5723191642478 14.6260053959016 19.766393058368 0.791777273638412 3.34065767494713 0.0852700000000001
0.08529 13.6361899933113 14.7829456296306 19.8747798872963 0.793179768372275 3.35672819179963 0.0852800000000001
0.0853 13.4527953127029 14.697138791094 19.8329947002595 0.792119385160538 3.34174266353403 0.08529
0.08531 13.6273751427936 14.6037836564749 19.8208185597322 0.785573877651452 3.36640512649259 0.0853000000000001
0.08532 13.444806478572 14.677965696147 19.956685313067 0.793507340942903 3.34152279930781 0.0853100000000001
0.08533 13.5420912966514 14.7403381813686 19.8503221315253 0.79801720101506 3.32788579051908 0.0853200000000001
0.08534 13.4722657076102 14.5962572313896 19.7857935322371 0.784642415449371 3.34364806294504 0.0853300000000001
0.08535 13.5393313847323 14.8194744943363 19.7679179941604 0.80003091321688 3.33682841440095 0.0853400000000002
0.08536 13.4748648717867 14.6107311654359 19.9880317406533 0.787113877874054 3.35834466165637 0.0853500000000001
0.08537 13.4295141364906 14.7210719712843 19.9656695625288 0.785620529477392 3.36877711283868 0.0853600000000001
0.08538 13.4181807639407 14.9383311845366 19.8936449226205 0.800066664827784 3.34980860964416 0.0853700000000002
0.08539 13.5629611774742 14.6858056492158 19.8662206972688 0.799540919837363 3.34591091767748 0.0853800000000001
0.0854 13.6527925418425 14.7292719784818 19.7673774133477 0.795961647410541 3.34309001072168 0.08539
0.08541 13.8885445911948 15.0057135885 19.5205778261416 0.808984787187107 3.3288979278867 0.0854000000000001
0.08542 13.8453357619668 14.8772859879386 19.601190080233 0.807685361675791 3.32409984532527 0.0854100000000001
0.08543 13.7939564345735 14.98045113521 19.6973510946624 0.810045499846435 3.3421401344523 0.08542
0.08544 13.7219071085751 14.97034325516 19.7230909452369 0.798684838150601 3.35244559339255 0.0854300000000001
0.08545 13.669930759723 14.7778990916375 19.7664586135481 0.797783158788601 3.34645190991138 0.0854400000000001
0.08546 13.6160570606881 14.8385406248506 19.8848110375996 0.794702091661201 3.35901449110563 0.0854500000000002
0.08547 13.4447237353445 14.6123430955577 19.9577684446759 0.790300154681931 3.34923278230391 0.0854600000000001
0.08548 13.0831880359951 14.5451218637032 20.0236125559296 0.772539201454087 3.35319559504584 0.08547
0.08549 13.2211406761532 14.6866868352618 20.0374488159112 0.780784769747621 3.36592305972433 0.0854800000000001
0.0855 13.3824984335036 14.7183761512246 19.9740990124947 0.794218697087905 3.35121635537086 0.0854900000000001
0.08551 13.5223170545881 14.6705396492602 19.9755515548045 0.782449833089416 3.37919855294164 0.0855000000000002
0.08552 13.4315920358132 14.7680983855738 19.8557135731761 0.789681685861766 3.34028336773664 0.0855100000000001
0.08553 13.4401723392756 14.6853999534448 19.9715503357443 0.789005660296957 3.3457840209354 0.0855200000000001
0.08554 13.4617300994064 14.7354466562775 19.8340012854113 0.792081025233107 3.35986827852479 0.0855300000000001
0.08555 13.5385280519007 14.7989493487285 19.8861388820076 0.794590536649002 3.36441331041399 0.0855400000000001
0.08556 13.7757161087232 14.8475327163529 19.780682376765 0.803433112895382 3.34350025448706 0.08555
0.08557 13.675186678057 14.9029592071541 19.7177422125178 0.804399253732453 3.31329935552002 0.0855600000000001
0.08558 13.7724782851425 14.8101601207946 19.7432363715465 0.805903039783319 3.33671775166813 0.0855700000000001
0.08559 13.7402639885776 14.8724192301651 19.80824103726 0.806491041469954 3.3485731341584 0.08558
0.0856 13.7486682897541 14.9992312977027 19.8154228203891 0.804646483008116 3.35765779765192 0.0855900000000001
0.08561 13.6296214937845 14.8383504916524 19.9222632533785 0.795126921797962 3.36209500467477 0.0856000000000001
0.08562 13.6561473576509 14.8003959436733 19.8116285875378 0.804048360780163 3.34305626624071 0.0856100000000001
0.08563 13.5297050233959 14.7203568256093 19.9389440243048 0.792213821969242 3.37273996566595 0.0856200000000001
0.08564 13.6079239088341 14.4958352033053 19.9062888251175 0.791234927970637 3.35535292281652 0.08563
0.08565 13.3253832605245 14.6202518281448 19.9999715164764 0.784193475001703 3.34093748220679 0.0856400000000001
0.08566 13.5698712490274 14.4333057234313 19.9854097922819 0.783326663451862 3.33834546275801 0.0856500000000001
0.08567 13.6371686755957 14.8215323966546 19.9697972454438 0.799603619114287 3.36158408350972 0.0856600000000002
0.08568 13.384976225907 14.747633414673 20.1029451583639 0.78973978736856 3.37425609364366 0.0856700000000001
0.08569 13.5782338284448 15.0619424636112 19.9395910960608 0.800018146174961 3.38019078807432 0.0856800000000001
0.0857 13.8108576782032 15.1452959086843 19.770684260564 0.814503562547712 3.36588005716485 0.0856900000000001
0.08571 13.719799453866 15.0410705123955 19.8327637205931 0.81009743431321 3.357349495554 0.0857000000000001
0.08572 13.6734665044463 14.9550282577584 19.7682704679407 0.803161750330208 3.3665210992617 0.08571
0.08573 13.7550390842334 14.8635697008524 19.7690548564708 0.802035230002207 3.35468760865769 0.0857200000000001
0.08574 13.899136957319 14.8494669680386 19.8340048843043 0.803646981393193 3.35314704163089 0.0857300000000001
0.08575 13.8529799080506 14.9192017986901 19.8164919968215 0.80844298786699 3.33502419340757 0.0857400000000002
0.08576 13.710535160495 15.0445296727787 19.7931610730709 0.802431462769944 3.36339903258161 0.0857500000000001
0.08577 13.3862900637202 15.0218996031697 20.0058844607892 0.793357972255713 3.3764551590736 0.0857600000000001
0.08578 13.5802505484283 14.7891469554686 19.934273454002 0.796765147562949 3.3610535578502 0.0857700000000001
0.08579 13.4555050432461 14.6072609112407 19.8943626485305 0.785502021320929 3.33481399445642 0.0857800000000001
0.0858 13.5746438091073 14.5807933428369 19.9759902503097 0.783578338338383 3.35949746584792 0.08579
0.08581 13.5973635262661 14.6874140506803 19.8940789421799 0.797170144715088 3.34977171073719 0.0858000000000001
0.08582 13.385632539079 14.5765137887095 20.094566744388 0.783269028434367 3.35684391133579 0.0858100000000001
0.08583 13.4035344459093 14.5227196095577 19.9240289835551 0.775507435781991 3.35803374909331 0.0858200000000002
0.08584 13.7040187039426 14.7890358049897 20.0001329293615 0.792949620207956 3.38176187955295 0.0858300000000001
0.08585 13.9201720938143 14.9998162148543 19.8154192170191 0.808428105226686 3.36277995448358 0.0858400000000001
0.08586 13.7824236711576 15.1643907577592 19.8103280676215 0.811302923254555 3.36153402020277 0.0858500000000001
0.08587 13.7317087889565 14.9888794104535 19.8052222204614 0.805071900773095 3.35577829923734 0.0858600000000001
0.08588 13.8369769486983 15.0094378745018 19.7943874279719 0.808340497536488 3.35916913438361 0.08587
0.08589 13.6944680858351 14.898034164321 19.8454141512018 0.80102783354334 3.36488419424045 0.0858800000000001
0.0859 13.5738202250628 15.0286049405693 19.8764739898794 0.799329462243714 3.38868828201574 0.0858900000000001
0.08591 13.6499815558113 15.0504184282246 19.9076976267289 0.804798700992996 3.38203937705022 0.0859000000000002
0.08592 13.5439287175778 14.8652793094547 20.0316117139354 0.799743881677338 3.37237681712288 0.0859100000000001
0.08593 13.6178877403291 14.948624519003 19.9392150469997 0.799410943904512 3.38423324292574 0.0859200000000001
0.08594 13.6984129207602 14.8484078420421 19.849840936424 0.806804049751682 3.35464924210604 0.0859300000000001
0.08595 13.4999117738145 14.85630325576 19.9192679188923 0.794235882028666 3.36782951108817 0.0859400000000001
0.08596 13.4390953814783 14.9510091822071 20.0215195134354 0.799508414632394 3.38998089653777 0.0859500000000002
0.08597 13.4046857978532 14.8902214938974 19.9191535355345 0.797549035387994 3.35490302353496 0.0859600000000001
0.08598 13.5723874252252 14.6467306797161 20.1138633811787 0.791157862705161 3.37919150692521 0.0859700000000001
0.08599 13.6014442951184 14.9201352389065 20.1698757859285 0.802316921659841 3.39462449290108 0.0859800000000002
0.086 13.5814786865019 14.7664612345016 19.986416021121 0.798374586718241 3.34325926108856 0.0859900000000001
0.08601 13.5037349431175 15.0974850003695 19.9747083220652 0.803946291203033 3.37539004923734 0.086
0.08602 13.6215144794006 14.9590317073588 19.9703955069525 0.80025007014609 3.3612386187128 0.0860100000000001
0.08603 13.7053810735144 15.0412229389435 19.7994307631769 0.807603100999467 3.359043038146 0.0860200000000001
0.08604 13.8051540710869 15.1663775333243 19.8021436576746 0.816567159117158 3.36840917604903 0.08603
0.08605 13.9599087237355 15.1452158999422 19.7050749003325 0.82123359654897 3.3431788350098 0.0860400000000001
0.08606 13.7670437079466 15.1844485716139 19.7943366223983 0.811001200434065 3.38062035181096 0.0860500000000001
0.08607 13.7186294120174 15.0913570505817 19.9258622977623 0.807221603402374 3.38023831084443 0.0860600000000002
0.08608 13.650428691247 14.9049650508646 19.9678916330944 0.803601835403306 3.36290105305922 0.0860700000000001
0.08609 13.6059983638407 14.8782232473677 20.071510043818 0.796457325924538 3.39290969410045 0.08608
0.0861 13.2559117046424 14.776523421192 20.1576304704293 0.787243380212811 3.37153388662425 0.0860900000000001
0.08611 13.3416188823347 14.746089749966 20.1525426667562 0.78941958595102 3.37936964853086 0.0861000000000001
0.08612 13.5866092483162 14.9436773197634 19.9781490008225 0.79662229543093 3.36939187768219 0.0861100000000002
0.08613 13.5500362655483 14.8312714968246 19.9750724332169 0.798281271666259 3.37674776157284 0.0861200000000001
0.08614 13.8233001560124 14.9493460452322 20.0276335322371 0.809684275193414 3.38084374607894 0.0861300000000001
0.08615 13.9627404466088 14.9092200299706 19.9301530391885 0.808128591936995 3.38612623472098 0.0861400000000001
0.08616 13.9212987427344 15.1499064096765 19.9701121894403 0.819542887699523 3.38647466469697 0.0861500000000001
0.08617 13.888644285615 14.9775363864632 19.8368197094861 0.810112466095068 3.35093779654237 0.08616
0.08618 13.84204909006 15.0367633394836 19.9691120814751 0.810733113436347 3.38868446348732 0.0861700000000001
0.08619 13.689393102243 14.8953734164202 20.1129673318383 0.798122970404293 3.40128921951936 0.0861800000000001
0.0862 13.5902514058726 14.9629020197684 20.041279171315 0.800464144455096 3.37752034950608 0.0861900000000002
0.08621 13.7517443699607 14.9419201750243 19.9695034001025 0.805151971333883 3.36381357576209 0.0862000000000001
0.08622 13.5233399213279 14.9736277491687 20.0054901800491 0.797444424668712 3.37852551093201 0.0862100000000001
0.08623 13.6620063318369 15.0632269802301 20.0053734361886 0.795483084043106 3.39515235779525 0.0862200000000001
0.08624 13.5966282091368 14.9034782386923 20.0702246507104 0.798037936475336 3.37152787028793 0.0862300000000001
0.08625 13.3187612264547 14.9934500311058 20.129189697659 0.795759719795854 3.38351406551905 0.0862400000000002
0.08626 13.5482990709633 14.9809166878022 20.0810085201219 0.798134878610437 3.3875600141174 0.0862500000000001
0.08627 13.6191629076085 14.9385220163246 19.995810749063 0.804688361578945 3.35862113791795 0.0862600000000001
0.08628 13.6918665269486 15.1866293512926 19.8640517443886 0.811768593037608 3.37522689966756 0.0862700000000002
0.08629 13.7323457417204 15.0917685665997 19.8733801689249 0.807647962976316 3.37984438607764 0.0862800000000001
0.0863 13.7800982682549 15.1591470283625 19.9150788476432 0.808487700566366 3.38107158957684 0.08629
0.08631 13.7971624242182 14.9702298069821 19.8383431834139 0.797716789399966 3.37089164922557 0.0863000000000001
0.08632 13.7417388630548 15.0609161821379 19.9430207317092 0.819040252533351 3.35673096322636 0.0863100000000001
0.08633 13.993314238203 15.2221900131029 19.7905939573578 0.812149654952995 3.37475712390478 0.08632
0.08634 14.0860511885215 15.2455646678349 19.6673809279738 0.818613369302283 3.35956235107957 0.0863300000000001
0.08635 13.9838927301735 15.3318364184913 19.8506435548898 0.828855284651677 3.36520757959906 0.0863400000000001
0.08636 13.7207360319181 14.9795211234384 19.9976866762008 0.801341358539753 3.39880365124861 0.0863500000000001
0.08637 13.6657646463256 14.6816496005251 20.1106005657442 0.795203562765879 3.3742965507842 0.0863600000000001
0.08638 13.4892718264274 14.6864752955598 20.3089043285511 0.789164384666498 3.39830545103891 0.08637
0.08639 13.4863941470035 14.6917044285864 20.273362889274 0.785697708348698 3.39740778126934 0.0863800000000001
0.0864 13.4080939029525 14.8063386240622 20.3115168900323 0.788981010317125 3.39345164773205 0.0863900000000001
0.08641 13.5516198381072 14.8520123277412 20.2363523246103 0.79174979581961 3.39301405321762 0.0864000000000002
0.08642 13.6741467614256 14.9761901420738 20.1388928192292 0.80215775554979 3.39915060007111 0.0864100000000001
0.08643 13.6913911711875 14.9553472575684 20.0533002830847 0.801079168200154 3.39352830008475 0.0864200000000001
0.08644 13.7536428325348 14.9558103345303 20.0470554402751 0.804856895930648 3.3875557100893 0.0864300000000001
0.08645 13.7232610106291 15.0614386069427 20.0677448845055 0.810776152280417 3.39218111288785 0.0864400000000001
0.08646 13.8940270193192 15.0402983123319 19.9620848530407 0.812228598862531 3.39062193455431 0.08645
0.08647 13.7283852693814 15.1974465723784 20.0315967833787 0.810442858219832 3.38943559536179 0.0864600000000001
0.08648 13.7845366215127 15.0737034842616 19.9717847029827 0.81316002458789 3.3669019331345 0.0864700000000001
0.08649 13.76087869259 15.1765143028215 20.039601770431 0.818260566193574 3.37108806130604 0.08648
0.0865 13.8312301462332 15.4570461434087 19.7474468916163 0.818954140198118 3.38267236129184 0.0864900000000001
0.08651 13.8438785402825 15.263753223409 19.8417801121506 0.815603358978652 3.37962869824909 0.0865000000000001
0.08652 14.095951012712 15.2506905158925 19.844492863192 0.827796134397871 3.3721194774071 0.0865100000000001
0.08653 13.8692570203659 14.9783613492887 19.9792004395201 0.806347555673021 3.38117305254585 0.0865200000000001
0.08654 13.7195702177431 15.0019441408443 19.9719494284015 0.805934300722114 3.37429925824635 0.08653
0.08655 13.6032134085345 14.8828106414432 20.0870578400442 0.806778475446945 3.38125902262076 0.0865400000000001
0.08656 13.4983511708871 14.8607644889509 20.2041207308768 0.792994714596608 3.40156751603661 0.0865500000000001
0.08657 13.4900865089365 14.9133226102209 20.2199420094665 0.78669427316474 3.40923780161715 0.0865600000000002
0.08658 13.6287013321996 14.8794396958647 20.2230655074525 0.797258511603633 3.39044495803975 0.0865700000000001
0.08659 13.9793766763374 15.138382737156 19.9013404654976 0.818960861095897 3.38200841346207 0.08658
0.0866 13.7651353611328 15.1534877871181 19.9777283014978 0.819386682022453 3.39163219094378 0.0865900000000001
0.08661 13.7391613669378 15.173789970334 19.9799158886654 0.809426342886299 3.38805890636294 0.0866000000000001
0.08662 13.7340079984623 15.1188688223386 19.9730111489896 0.81189625582781 3.38000106318652 0.08661
0.08663 13.8475665785785 14.9923705156479 20.1072920659626 0.816846502959 3.37160388683256 0.0866200000000001
0.08664 14.1433586178427 14.9981923190256 19.9954567716752 0.816133647271478 3.36424994101339 0.0866300000000001
0.08665 13.9965760125966 15.0859741740029 19.926462688303 0.823227702397794 3.35004265136962 0.08664
0.08666 13.5327924058145 14.8786382374877 20.0439633636402 0.794031289834452 3.39121709764561 0.0866500000000001
0.08667 13.7791678474033 15.0135329563374 20.1446603691154 0.807044451136198 3.40448824606183 0.08666
0.08668 13.919096558828 14.9571836169641 20.1163098374334 0.819796187346197 3.37216917114643 0.0866700000000001
0.08669 13.7528665864781 15.0417531015743 20.1936983929429 0.807212830676301 3.39503774435005 0.0866800000000001
0.0867 13.6600824793213 14.9069122891752 20.0898844027835 0.800486898468432 3.38219637751507 0.0866900000000002
0.08671 13.6859641091983 15.0677382226102 20.1972156085111 0.8019194060753 3.40791415530007 0.0867000000000001
0.08672 13.7650062405607 14.9233007861884 20.1370416921524 0.811217951358362 3.38359907236967 0.0867100000000001
0.08673 13.6362231439779 14.918661883949 20.131683143944 0.805392707610242 3.37189249402062 0.0867200000000002
0.08674 13.6517370041334 14.8952870107044 20.180793203912 0.801889388725574 3.39532690280977 0.0867300000000001
0.08675 13.8085618438191 14.9947249854761 20.1278941216679 0.81512821545574 3.39071615586484 0.08674
0.08676 13.7692041962631 15.1335838915119 20.1476569681531 0.802063572014397 3.40669996528686 0.0867500000000001
0.08677 13.83365673814 15.2071205823647 20.1030564290736 0.812032391697854 3.40139451991278 0.0867600000000001
0.08678 13.8175551215258 15.0128749137353 20.0665696416594 0.809023514193082 3.39321007160999 0.08677
0.08679 13.8496145497427 14.9541438673621 20.0365445193848 0.80892691245231 3.37887343120758 0.0867800000000001
0.0868 14.007186183742 15.2378013136411 19.8548244876028 0.818165705026728 3.37579266196021 0.0867900000000001
0.08681 14.0139505782775 15.2266950280514 19.8541053099369 0.826042640181924 3.38171178133712 0.0868000000000002
0.08682 14.0062518702842 15.2541045850942 19.954616148154 0.816751027610289 3.3993424309156 0.0868100000000001
0.08683 13.8497052014875 15.0769162759252 20.1032182459566 0.810312304773202 3.40812631359775 0.08682
0.08684 13.8962718814106 15.0248138706774 19.9841389263664 0.809560102705936 3.38838517017624 0.0868300000000001
0.08685 13.9461480627546 15.1964423660289 19.8867913825273 0.816763314474744 3.38718318581399 0.0868400000000001
0.08686 13.9357572423727 15.3025566177556 19.941550180874 0.81930039359362 3.38645581714132 0.0868500000000002
0.08687 13.9493433205679 15.3789977943448 19.7453130707842 0.82559835416629 3.37652034459699 0.0868600000000001
0.08688 13.9263618357731 15.1262718691366 19.7502328548362 0.812961837785892 3.36398488165315 0.0868700000000001
0.08689 13.6847243048671 14.9026241917027 19.9413544882858 0.793788890521397 3.37761813352622 0.0868800000000002
0.0869 13.8339658254782 14.7730043217993 20.0079040677742 0.801351450863831 3.37587657845467 0.0868900000000001
0.08691 13.5398920415326 14.6335757651663 20.0258547938033 0.791791556955873 3.37632634800382 0.0869
0.08692 13.5669504110669 14.9021997037569 19.9545185784936 0.794971498812968 3.38032691480235 0.0869100000000001
0.08693 13.5796997544246 14.9027923733421 19.8965010843644 0.794053845490152 3.38260489794474 0.0869200000000001
0.08694 13.7075000605065 14.9835314266549 19.9383798336116 0.799470266441498 3.39486875129714 0.08693
0.08695 13.6306144216842 14.8668225017262 19.8439326150107 0.795074324746611 3.39942026758199 0.0869400000000001
0.08696 13.6042264701647 14.9135057125571 19.8322335875182 0.805487811702814 3.35316207472405 0.0869500000000001
0.08697 13.4866850894962 14.9066044065271 20.0370721234911 0.800031035636555 3.36997691721247 0.0869600000000001
0.08698 13.6705549164821 15.0640492105893 19.9266848332885 0.800760058006969 3.38637507628279 0.0869700000000001
0.08699 13.827453915977 15.1758890074125 19.847900655777 0.818357970652169 3.36608491095659 0.0869800000000002
0.087 14.0774949839464 15.1155932827641 19.6158918821691 0.812576583282709 3.34990622826942 0.0869900000000001
0.08701 14.1008580748917 15.172662381263 19.7296569245357 0.818670796451153 3.36548749722186 0.0870000000000001
0.08702 13.7644165362718 15.1794069049096 19.8570907155502 0.816599371023918 3.36435975668497 0.0870100000000002
0.08703 13.9265889424587 15.0577439025449 19.7631709153007 0.814138830042399 3.36443560282779 0.0870200000000001
0.08704 13.8508059222646 15.0718256957771 19.8786196880386 0.812727644059733 3.372445309639 0.0870300000000001
0.08705 13.7379109615891 15.0848998938638 19.927891271396 0.810043378331952 3.38348781520452 0.0870400000000001
0.08706 13.5902509944497 14.911331917011 19.9594719760515 0.793312274944022 3.38071153096048 0.0870500000000001
0.08707 13.8359006804955 14.9230201717122 19.827864031756 0.811352056943784 3.36758062977225 0.08706
0.08708 13.6203726516416 14.900510796554 20.0429386006201 0.795253911062414 3.396954819109 0.0870700000000001
0.08709 13.8831962879053 14.8758862802845 19.9306250315938 0.813493334916496 3.35023995283554 0.0870800000000001
0.0871 13.7107326638449 15.038743196473 19.9746116439605 0.809286082307226 3.36443152649165 0.0870900000000002
0.08711 14.0818750991599 15.2069231427482 19.8864772445555 0.818907383090637 3.37857236636458 0.0871000000000001
0.08712 14.1137520136313 15.0739490132375 19.6197409796112 0.822708373036685 3.33076709336349 0.08711
0.08713 13.8779850080871 15.1390880164724 19.8691933435502 0.804359377399972 3.38656289869087 0.0871200000000001
0.08714 13.8618999245839 14.9917467198251 19.9293821733271 0.810827577234921 3.36431614886882 0.0871300000000001
0.08715 13.7988847692683 15.171422389049 19.8883563845796 0.815995866227704 3.37823976690123 0.0871400000000002
0.08716 13.8991439329471 15.1494924534606 19.8185901329734 0.813569221099768 3.37674340436011 0.0871500000000001
0.08717 13.8169163295738 15.2600598075832 19.9590220374749 0.815737622634852 3.37432923695781 0.0871600000000001
0.08718 13.8280035744619 15.0787274597318 20.0051779571246 0.813734340874558 3.38562288717252 0.0871700000000002
0.08719 13.7839895774512 15.0362021313419 19.841384190583 0.803365752048708 3.37072592269861 0.0871800000000001
0.0872 13.7400676645315 15.0526377936942 19.9318916799069 0.806218337363643 3.37593114444014 0.08719
0.08721 13.5260505638635 14.9515932431182 20.0330694480144 0.800475079661994 3.39296367827018 0.0872000000000001
0.08722 13.5902826451568 14.7734238942996 20.0300072350453 0.793376790830148 3.38582114045715 0.0872100000000001
0.08723 13.5973961314784 14.7233121210253 20.2173200180468 0.792890449040586 3.394677358226 0.08722
0.08724 13.7065498965717 14.8355811799533 20.014525249316 0.804168660944943 3.36747872535434 0.0872300000000001
0.08725 13.7196208594254 15.133482199832 19.8594463870169 0.813133619548983 3.37359445525936 0.0872400000000001
0.08726 13.8373393399344 15.0470109401726 19.8149544159176 0.801932026569584 3.38005312839246 0.0872500000000001
0.08727 13.8587078432761 15.3122623107442 20.0362174731837 0.817744441766563 3.39697753988458 0.0872600000000001
0.08728 13.9143614289141 15.1009912371764 19.9487834907113 0.819777538197432 3.36223281332787 0.0872700000000002
0.08729 13.9149313566682 15.0805228187448 19.7616703646182 0.813962179071495 3.36289778445815 0.0872800000000001
0.0873 14.0231405106111 15.1478490191165 19.814181397699 0.818221662230833 3.38048990957351 0.0872900000000001
0.08731 14.0381275424718 15.1533917004903 19.8872862915856 0.823688104991099 3.36907933167543 0.0873000000000002
0.08732 13.8050104294885 15.2763720233709 19.8785920675941 0.815653337763125 3.36697151430496 0.0873100000000001
0.08733 13.9510024746822 15.3347356348732 19.852615697967 0.819932360694205 3.3808165957383 0.0873200000000001
0.08734 13.9610530678389 15.3228508517302 19.7789299372712 0.819460189806998 3.36757683972391 0.0873300000000001
0.08735 13.7806757119986 15.2105098627584 19.8517175512056 0.817923637004692 3.35893025397935 0.0873400000000001
0.08736 13.5967908838791 15.1324159386544 20.0775828774411 0.806674191264881 3.39560680329193 0.08735
0.08737 13.9174869061605 15.228756660554 19.8258325879863 0.813003545728852 3.39060004736301 0.0873600000000001
0.08738 13.9351046410149 15.0501816417081 19.9225101006877 0.810618684197328 3.36489613343911 0.0873700000000001
0.08739 14.090543515769 15.1149950954745 19.8926628476328 0.81869777780775 3.36719902733275 0.0873800000000002
0.0874 13.947982887015 15.0473239598434 19.8831062063448 0.817725263364607 3.3614921435714 0.0873900000000001
0.08741 14.0814539008711 15.1818269020961 19.8246017762552 0.824914796842755 3.37926539962626 0.0874
0.08742 13.75899457841 15.0011095844894 20.034789855581 0.807596274309026 3.35789308635821 0.0874100000000001
0.08743 13.7259509903348 14.6710342867802 20.1592869436709 0.800293486374179 3.38746875206226 0.0874200000000001
0.08744 13.8784423125209 14.8949034467576 20.1176282950347 0.807077970959368 3.39866553330776 0.0874300000000002
0.08745 13.8303214528919 14.9242536589483 20.1286780481351 0.807680062864778 3.39318811169199 0.0874400000000001
0.08746 13.7826358270434 15.0057982686991 20.0606146781799 0.804052277795253 3.38938829463797 0.0874500000000001
0.08747 13.8043131024302 15.007114468225 20.1183415967221 0.806720492319067 3.38852133765437 0.0874600000000001
0.08748 13.6330728742547 14.9751947937271 20.1652433380387 0.801462149022503 3.40087963622703 0.0874700000000001
0.08749 13.9081959542569 15.3570356751131 19.8957423349264 0.819202407027224 3.37080801232886 0.08748
0.0875 13.9334423708768 15.3000358074744 19.711197674145 0.823600207147316 3.35377858816187 0.0874900000000001
0.08751 14.1224110812122 15.3628129222905 19.5993306570632 0.826550749743105 3.36066189411024 0.0875000000000001
0.08752 13.9483477933335 15.2403572258647 19.9313151942872 0.81746910776527 3.3887812479166 0.08751
0.08753 13.748489233496 14.9751190079608 19.9627709305204 0.807570883879619 3.38706132569574 0.0875200000000001
0.08754 13.8072122778303 15.0714950684436 19.9745840692611 0.814163552683666 3.37417960324122 0.0875300000000001
0.08755 13.916961334438 14.9412103199806 20.1039675399005 0.807044706516641 3.4125381576362 0.0875400000000001
0.08756 13.9370174129342 15.1862317384413 19.9858062833733 0.813025870412243 3.3887681305416 0.0875500000000001
0.08757 13.7559922665311 15.0513514808815 20.0323560379861 0.810730961370649 3.37895006448141 0.08756
0.08758 13.7816797444518 14.9911081650955 20.0673150175752 0.802285333664847 3.38984291706075 0.0875700000000001
0.08759 13.7541358947495 15.02598749415 19.9684621522438 0.810940462770505 3.3763300663535 0.0875800000000001
0.0876 13.7028990515733 15.0181516972653 20.0525888146331 0.808221848979923 3.37639958773097 0.0875900000000002
0.08761 14.08862277875 15.1709724635062 19.9097641450133 0.819619011631314 3.38935419492715 0.0876000000000001
0.08762 13.9001168164867 15.1443826566211 19.952800082259 0.813802981094776 3.38469242354075 0.0876100000000001
0.08763 13.7703033580702 15.0591757346585 20.0269311618416 0.800321482249163 3.40969815174384 0.0876200000000001
0.08764 13.8847648189377 15.0801353986818 19.9718706998712 0.811155257149536 3.39788218835929 0.0876300000000001
0.08765 13.8887686231576 15.0257213027362 19.973911229071 0.810895998488815 3.39403782458437 0.08764
0.08766 13.9277273762048 15.2193945653046 19.993921509343 0.815006393101004 3.39151503123228 0.0876500000000001
0.08767 13.9743542503703 15.244736655074 19.8861555715026 0.81932963740034 3.37567559239105 0.0876600000000001
0.08768 14.0775252660652 15.3202652733658 19.8275162483583 0.821759529845507 3.38499220533761 0.0876700000000002
0.08769 14.2505869043133 15.3533693488757 19.8747200472742 0.829424032415229 3.38316875232998 0.0876800000000001
0.0877 14.1067261523401 15.1132462952173 19.9334445096697 0.817954017478916 3.4087618425168 0.0876900000000001
0.08771 14.1249983512961 15.2995974641279 19.8807246962444 0.823969036300945 3.38601391636055 0.0877000000000001
0.08772 13.8540027961293 15.164669384565 19.9462926252665 0.816442864812985 3.36823274697159 0.0877100000000001
0.08773 13.9249502145748 15.0936484231931 19.9896703747546 0.816367578976395 3.37844005832596 0.08772
0.08774 14.0330018041585 15.3596116308667 19.8977459387664 0.828072730023901 3.38315849145807 0.0877300000000001
0.08775 14.0886873242534 15.2639556770435 19.8667678939203 0.832681714604885 3.35885255374919 0.0877400000000001
0.08776 14.0372838951857 15.1295267990991 20.0406278766973 0.818535211182663 3.41088999293395 0.0877500000000002
0.08777 14.0451835528822 14.9487477187593 20.1034029501561 0.811923678479471 3.40544343504866 0.0877600000000001
0.08778 13.9874381241655 15.0950068687438 20.0574770404454 0.822439343288087 3.40308496523474 0.0877700000000001
0.08779 13.8782578479558 15.020390062587 20.0063139777635 0.811433114901178 3.40432425990342 0.0877800000000001
0.0878 13.8201743751807 15.0705744960042 20.114664914744 0.80426713077643 3.41847531042894 0.0877900000000001
0.08781 13.5230254240592 15.0942894252972 20.3385640041157 0.806023219222921 3.40968480346387 0.0878
0.08782 13.589015264541 14.9302412889632 20.2512940158378 0.798240482460188 3.40307680036389 0.0878100000000001
0.08783 13.8523849976351 14.9868582473666 20.2466817727264 0.807827801738072 3.40856856253619 0.0878200000000001
0.08784 14.0316800174071 14.9574446348828 20.133757033115 0.823594071516187 3.38600357781802 0.0878300000000002
0.08785 14.0453729369003 15.1189840740493 20.1234317921033 0.819866460038527 3.39860580866632 0.0878400000000001
0.08786 14.1045902824736 15.1481257848547 19.9320517646219 0.823527420555965 3.38199843876505 0.0878500000000001
0.08787 14.3400888790282 15.437830441733 19.732223981704 0.830361157047146 3.40946251193304 0.0878600000000001
0.08788 14.3236071605053 15.4348337735276 19.7455372243673 0.834613898481275 3.38520025220733 0.0878700000000001
0.08789 14.3361821940931 15.4114618360563 19.868744136809 0.829581496603007 3.40646423231742 0.0878800000000002
0.0879 14.1567296691918 15.2598364390606 19.9759668392015 0.826659112776665 3.40049963899742 0.0878900000000001
0.08791 13.9397563708896 15.224841217545 20.0016544864636 0.813438400663694 3.39838483505683 0.0879000000000001
0.08792 13.9236285683995 15.0895748982456 20.0436691139083 0.817805884972706 3.37140180140633 0.0879100000000002
0.08793 13.8487240111979 15.0792912304532 20.1332649741561 0.808189374519837 3.39620257652576 0.0879200000000001
0.08794 13.7750846984561 15.1994031821135 20.0276629281723 0.816218454761682 3.3915273569668 0.08793
0.08795 13.9885016928314 15.2228024900876 19.976516034298 0.820116366630427 3.39774673445314 0.0879400000000001
0.08796 13.9381126650234 15.185430076498 20.0562601221818 0.822291113260397 3.402157294099 0.0879500000000001
0.08797 13.9391313916837 15.4569471895534 20.0120906556929 0.824921581721033 3.40998841421057 0.08796
0.08798 14.0476806874802 15.1400065892169 20.0203694765631 0.817528571442776 3.39304980887536 0.0879700000000001
0.08799 13.930843105173 15.1963617722927 20.0313394253873 0.814390340764712 3.39329701815774 0.0879800000000001
0.088 14.0464557562728 15.1417263265275 20.0378065606584 0.827590237270076 3.36878122487186 0.0879900000000002
0.08801 14.032244910333 14.9401907446897 20.078601019148 0.807992345019987 3.38827775441856 0.0880000000000001
0.08802 13.9439326517641 15.4606833428893 19.9983795602058 0.820084840721147 3.4049565298175 0.08801
0.08803 14.0944157836674 15.3536428234633 20.0109786897427 0.826181539998357 3.40319350598228 0.0880200000000001
0.08804 13.8457275791303 15.3634340584787 20.0922330953462 0.823509134090709 3.40454505648941 0.0880300000000001
0.08805 13.7979642171218 15.3262860920142 20.1564424206619 0.817407241018417 3.41479792185642 0.0880400000000002
0.08806 13.9693775118183 15.161927853786 20.1430437781005 0.820088058066433 3.3962690962662 0.0880500000000001
0.08807 14.1325585576503 15.2921791702304 19.9968842894606 0.821513292957183 3.39565839260847 0.0880600000000001
0.08808 14.0939773559797 15.0905362514238 20.1160884835204 0.816392433075967 3.41447131079507 0.0880700000000001
0.08809 13.9381423307937 14.9722377775034 20.223507881058 0.805309235084734 3.42421608840122 0.0880800000000001
0.0881 13.8873192796579 15.0189220294233 20.2416607403739 0.810395112446651 3.41118482439921 0.08809
0.08811 14.2492047258012 15.4078339124822 20.0369442761336 0.836117961582816 3.40809741311635 0.0881000000000001
0.08812 14.0212473688298 15.2771583805127 19.950066539388 0.817334293301515 3.39864184151743 0.0881100000000001
0.08813 14.0327997891396 15.1207818415951 20.2114120698616 0.818896125113047 3.4126559740618 0.0881200000000002
0.08814 13.8136324240741 15.2503764245821 20.1536529432016 0.818620750380835 3.41530258734778 0.0881300000000001
0.08815 13.7445287571175 15.1259829448927 20.1569454763558 0.801073598394347 3.43069248368328 0.0881400000000001
0.08816 13.9407897441096 15.3864274207079 19.9672108585699 0.82298052002461 3.38491689136717 0.0881500000000001
0.08817 14.0292662487227 15.2549808828761 19.957806026015 0.816437906168193 3.39410907694791 0.0881600000000001
0.08818 14.1663285653051 15.2189778405846 20.0394303662208 0.828415624386044 3.39880224412762 0.0881700000000002
0.08819 14.2859100239827 15.4069154367288 19.9617877345127 0.831622097362844 3.40529420731065 0.0881800000000001
0.0882 14.2265386668689 15.4318742460498 19.8622074698197 0.835378750757332 3.39664112430732 0.0881900000000001
0.08821 14.4160805784323 15.7865863915856 19.6654114988592 0.842184597521918 3.40749990202984 0.0882000000000002
0.08822 14.2347670256254 15.6035077347307 19.8169016650426 0.836631997177951 3.38508319982025 0.0882100000000001
0.08823 14.2783315859388 15.6797282801376 19.892199122852 0.848146320447119 3.40049478501305 0.08822
0.08824 14.0609034111864 15.2788643108273 19.9774502865477 0.820994816022254 3.39414912679573 0.0882300000000001
0.08825 14.0520484418976 15.3639489114865 19.9849731131379 0.823217461516186 3.40143610497286 0.0882400000000001
0.08826 13.8911483888679 15.3175218424301 20.0754764247109 0.816220522269809 3.39680272642539 0.08825
0.08827 13.8192754657284 15.118139677028 20.2038074867111 0.815921074164138 3.4097015280243 0.0882600000000001
0.08828 13.8467319241752 15.2865094582249 20.1724232961087 0.817647383757712 3.4179920772322 0.0882700000000001
0.08829 13.933177226135 15.1817498757329 20.1202928866161 0.815399990491369 3.41833570501571 0.0882800000000002
0.0883 13.8731402814733 15.0196300581408 20.1660482994958 0.80769826218366 3.42348800947278 0.0882900000000001
0.08831 13.9890296195315 14.9998087969126 20.197880722034 0.81537783284268 3.42190615322386 0.0883
0.08832 14.150683768982 15.2343279344912 20.1402675453539 0.822115241723207 3.43264581545138 0.0883100000000001
0.08833 14.2291224663402 15.4116491316988 20.051656012316 0.83354990431276 3.4184338951323 0.0883200000000001
0.08834 14.2505929642322 15.3019390890305 20.0084379637289 0.820449274606762 3.42378824054484 0.0883300000000002
0.08835 14.0557312970248 15.3005302409774 20.0876977626256 0.833107592628182 3.39851625634128 0.0883400000000001
0.08836 14.0843010980355 15.3298236623385 20.0257738728721 0.82586964074498 3.42192876178047 0.0883500000000001
0.08837 14.2277531142883 15.455598914076 20.0846404946997 0.833862859451633 3.41982328441113 0.0883600000000001
0.08838 14.1944556152825 15.1865572514076 20.1523967761672 0.825918554621269 3.41653948964626 0.0883700000000001
0.08839 14.0917539951513 15.310931033985 20.1423374274228 0.826605267503561 3.40385650864569 0.08838
0.0884 14.1435932099896 15.217048145268 20.0572881992863 0.819608227326552 3.40924043849285 0.0883900000000001
0.08841 14.0579082795741 15.2086840338366 20.2864174333821 0.825424972137182 3.42128154171568 0.0884000000000001
0.08842 13.9538926430602 14.9871608301957 20.2973504909825 0.813393665735642 3.42024113764244 0.08841
0.08843 14.0069864611988 15.0285797838756 20.0957721307379 0.814718967841926 3.4106516521077 0.0884200000000001
0.08844 14.1622176413176 15.4287265329625 20.133814647767 0.832883174890569 3.42053461617295 0.0884300000000001
0.08845 13.9875427892804 15.356867311582 20.1983918633654 0.820922251713145 3.44002440967909 0.0884400000000001
0.08846 14.0510476351859 15.3314249702644 20.0989207272044 0.82379201032695 3.41302645041877 0.0884500000000001
0.08847 14.2126753012181 15.429911194764 20.0299487547269 0.833845843471628 3.41018139478509 0.0884600000000002
0.08848 14.1820558014877 15.434632969001 20.032523452124 0.824317653154567 3.42013071069333 0.0884700000000001
0.08849 14.3202529501023 15.3266322155314 20.0025561884067 0.83381096175335 3.40232653631752 0.0884800000000001
0.0885 14.3148902419112 15.3869775417863 19.9984588054582 0.83167836091266 3.40810269754896 0.0884900000000002
0.08851 14.3593656203144 15.7322328089295 19.8801349472062 0.837627785955345 3.4194484174862 0.0885000000000001
0.08852 14.2178955428306 15.4959042496554 20.1263278715028 0.833830405766759 3.41936788120468 0.08851
0.08853 14.017441681375 15.4232232087675 20.1166460759083 0.819960411375462 3.42839639147074 0.0885200000000001
0.08854 13.9266246752909 15.2440524260216 20.1802563580017 0.819386305459684 3.43110545756342 0.0885300000000001
0.08855 14.0378664041782 15.2602319452608 20.2094680008454 0.821567953032217 3.43120587103606 0.08854
0.08856 14.140707096 15.3262932020299 20.2734085686754 0.827066771936353 3.43659741911618 0.0885500000000001
0.08857 14.0806482836642 15.0980574780988 20.3380691936087 0.82262071353018 3.41908410593358 0.0885600000000001
0.08858 14.1648219242855 15.5086797245307 20.1352753013606 0.837264124511982 3.41286389693419 0.0885700000000002
0.08859 14.2605757616593 15.5169590066605 20.0976422135009 0.830652745618669 3.43068729590092 0.0885800000000001
0.0886 14.1278019883892 15.2947179936954 20.1880648892834 0.824259003526413 3.41685839524327 0.08859
0.08861 14.1709357161012 15.131878351643 20.2464546672199 0.822082548625341 3.42242052926665 0.0886000000000001
0.08862 14.0632007910061 15.0739920008597 20.3260388977649 0.824208259189753 3.41399133795051 0.0886100000000001
0.08863 13.8212214162451 15.1315485666998 20.4147612603177 0.81168278366868 3.44412858333701 0.0886200000000002
0.08864 13.943988035507 15.0965580995937 20.3729556228494 0.806986089699712 3.45517844172748 0.0886300000000001
0.08865 14.1891123937774 15.2801071115438 20.1826374810556 0.824171683611052 3.43184434879991 0.0886400000000001
0.08866 14.1640217894319 15.1231328088189 20.1510104695509 0.817166428361567 3.42083977816521 0.0886500000000002
0.08867 14.3406164105787 15.3214666913345 20.0757413472643 0.834838675196037 3.41008187927814 0.0886600000000001
0.08868 14.3423046096766 15.5430485334864 20.0202451121142 0.841991257188701 3.4047472946686 0.08867
0.08869 14.259705981477 15.2987356526725 20.1716524239775 0.826016619523751 3.42745124100099 0.0886800000000001
0.0887 14.2141113044205 15.4288099788165 19.9826519298307 0.828476656179295 3.39316572771165 0.0886900000000001
0.08871 14.2096038091012 15.3588685398269 20.1597376215824 0.836015018009637 3.40788281391086 0.0887
0.08872 13.9488820941188 15.3922888475714 20.1780213692054 0.8207024975142 3.43497251632977 0.0887100000000001
0.08873 13.9115164776455 15.2817531955691 20.2661015704284 0.822575856755912 3.42587862000326 0.0887200000000001
0.08874 14.0861383965401 15.4159847881136 20.2486279710762 0.830739009549439 3.42320985377152 0.0887300000000002
0.08875 14.0788525571633 15.3478538417181 20.2029945208458 0.824512012739919 3.42871509663314 0.0887400000000001
0.08876 14.3289038412579 15.6288843079944 20.1050243052602 0.841431562136285 3.4372419148147 0.08875
0.08877 14.2266448626062 15.4543407487596 20.0666386262066 0.837815095149253 3.41463626137741 0.0887600000000001
0.08878 14.3725804636942 15.6241798323035 19.9744320144656 0.842962407091621 3.40839545033137 0.0887700000000001
0.08879 14.3786320923789 15.6073427381431 19.9429580579323 0.840367941783827 3.41128648183167 0.0887800000000002
0.0888 14.3283295287748 15.5236256496052 20.0655797893712 0.837397902420358 3.40416143027157 0.0887900000000001
0.08881 14.2549311646711 15.4557932164634 20.0758213612914 0.834630958253326 3.41092720995658 0.0888000000000001
0.08882 14.1493067126671 15.3338594401528 20.2852760986852 0.830121714645749 3.43207330679014 0.0888100000000001
0.08883 14.2255666436148 15.3208693131645 20.1715711941277 0.825562257128304 3.43184311032564 0.0888200000000001
0.08884 14.0186154218241 15.2207856349194 20.2718284757033 0.829493509850014 3.42395554046001 0.08883
0.08885 14.0329542010541 15.4056718645562 20.1670321846494 0.830458200588541 3.4317965528569 0.0888400000000001
0.08886 14.2226536030085 15.3277641658404 20.2144451614022 0.832590159684145 3.42947037660345 0.0888500000000001
0.08887 13.8652348593685 15.2062553663306 20.3272474114754 0.814421444997349 3.44075997041499 0.08886
0.08888 14.0366768566722 15.2601286727918 20.1899006274614 0.81952715421146 3.42303859623706 0.0888700000000001
0.08889 14.0834075299273 15.2315089107887 20.192765018523 0.827045226421118 3.42811840603484 0.0888800000000001
0.0889 14.0457135289241 15.520761157968 20.2638535453082 0.829713161613342 3.44365817130355 0.0888900000000001
0.08891 13.9008910031489 15.2691137986443 20.4004859763655 0.817255342840573 3.44938033144338 0.0889000000000001
0.08892 13.9798401501165 15.1777022642491 20.2445444743105 0.821496690616482 3.42446324283823 0.0889100000000002
0.08893 14.1977799727768 15.2608191024297 20.1213303168215 0.82716022112819 3.42222401442998 0.0889200000000001
0.08894 14.1897194316203 15.5015784073326 20.2023559278309 0.826728564195864 3.45559468694158 0.0889300000000001
0.08895 14.3707564093149 15.5485953050278 20.0995699561925 0.843292176356915 3.41669496908729 0.0889400000000002
0.08896 14.2190073284874 15.4626658716226 20.1270261570947 0.834422059433409 3.42559953784422 0.0889500000000001
0.08897 14.1693018136278 15.5504987273568 20.1653203209088 0.83724531369769 3.43156459421579 0.0889600000000001
0.08898 14.1625710166642 15.4000910716547 20.1224272981459 0.828556703060566 3.44181774329292 0.0889700000000001
0.08899 14.2480244966895 15.5317422910018 20.2207975315166 0.838082375392421 3.44342103419377 0.0889800000000001
0.089 14.2098123674158 15.5166953930029 20.1835072485747 0.832364690634117 3.43181265316667 0.08899
0.08901 14.0846468569158 15.3789033029514 20.1724343591316 0.833358705705948 3.41071978010996 0.0890000000000001
0.08902 14.0147854804813 15.3125501749628 20.2685228076772 0.826938527320635 3.41162713772306 0.0890100000000001
0.08903 14.1334134189868 15.3887017215979 20.1285050514684 0.828717851545781 3.39262202396382 0.0890200000000002
0.08904 14.2960394728067 15.4194837303312 20.1764211926634 0.83510822341425 3.41028812584003 0.0890300000000001
0.08905 14.4359354928437 15.4518285006488 20.2835604901806 0.841485748770791 3.4366326598436 0.08904
0.08906 14.3585841450678 15.4030737262411 20.3615129654618 0.832219090312523 3.43224169064436 0.0890500000000001
0.08907 14.4567584655475 15.5725002301319 20.125713896148 0.849659260067821 3.42247086248347 0.0890600000000001
0.08908 14.1474726036186 15.4181756747883 20.1176265525169 0.827086457844673 3.42313783793276 0.0890700000000002
0.08909 14.0018577153804 15.3508688983066 20.3030321881842 0.817783198223371 3.46598271421797 0.0890800000000001
0.0891 14.3072035392973 15.534155094015 20.3071693385901 0.837081733908219 3.45988156842266 0.0890900000000001
0.08911 14.4155785984024 15.465884162176 20.1585994638673 0.840140419381724 3.45588176581493 0.0891000000000002
0.08912 14.2896336638486 15.4914959452434 20.197296828357 0.832567442153011 3.42950121738953 0.0891100000000001
0.08913 14.2376024796495 15.4983915289937 20.2458364327225 0.841588549589326 3.42748926962048 0.08912
0.08914 14.2636474135978 15.4544113280917 20.2580971031721 0.833378150289834 3.4401023284557 0.0891300000000001
0.08915 14.1769668582525 15.3669224567595 20.3149618492071 0.827347942751872 3.44191197494775 0.0891400000000001
0.08916 14.0375991656176 15.4822340993415 20.2556759487471 0.833675768477142 3.42475847764603 0.08915
0.08917 14.020827278009 15.4395210453355 20.215712093722 0.825214970429832 3.43011692346224 0.0891600000000001
0.08918 14.0848931992208 15.4781913305812 20.2590381678463 0.824100193999439 3.4683095115003 0.0891700000000001
0.08919 14.2646002369758 15.6852271349624 20.1818312816669 0.842079983677384 3.44559676749239 0.0891800000000001
0.0892 14.1486578893247 15.2790472955318 20.3589884801248 0.819482736680615 3.4583656215761 0.0891900000000001
0.08921 14.3795351094324 15.343595047329 20.2131043159684 0.831825554348551 3.4425829105084 0.0892000000000002
0.08922 14.1984795938028 15.6177283265116 20.3161728545557 0.832814381329203 3.45023608043586 0.0892100000000001
0.08923 14.2524378238082 15.3277904896991 20.3580708942612 0.825414674783607 3.45644845192067 0.0892200000000001
0.08924 14.1793602547646 15.4836332226496 20.1958929218248 0.83162046768784 3.43306612615995 0.0892300000000002
0.08925 14.3413543298461 15.6619574589442 20.1902518697229 0.841613221496867 3.45070417678555 0.0892400000000001
0.08926 14.2622505046556 15.3738213733779 20.1994299157422 0.826859717801058 3.46273004389639 0.0892500000000001
0.08927 14.3417110334565 15.6947423039934 20.1264959016224 0.844625021981467 3.43890033828752 0.0892600000000001
0.08928 14.3344156552108 15.5865553415598 20.1853828432113 0.844325865706582 3.43770317824968 0.0892700000000001
0.08929 14.4957189324191 15.601461559534 20.0840707655954 0.84207683135167 3.43575068243577 0.08928
0.0893 14.1820018411743 15.757745216285 20.2486783009525 0.83744358905285 3.44123370906876 0.0892900000000001
0.08931 14.166639363648 15.5533455202235 20.2365258213567 0.831773693410437 3.44971504294801 0.0893000000000001
0.08932 14.3295202138538 15.5625996230037 20.2921365415383 0.840342145681496 3.45141828965843 0.0893100000000002
0.08933 14.2670385789058 15.3938156563433 20.3370588427359 0.82810943879077 3.4408296800968 0.0893200000000001
0.08934 14.5101203974456 15.4475306792963 20.2179398744834 0.838349039205676 3.44383502652423 0.08933
0.08935 14.3519621662159 15.4328655474197 20.3165976206211 0.840307502510868 3.42930513133331 0.0893400000000001
0.08936 14.3318855040326 15.4631021061958 20.2915011123743 0.834906111996519 3.45281284732686 0.0893500000000001
0.08937 14.23315070938 15.3568004373105 20.3343243148712 0.823203774707566 3.45408667461065 0.0893600000000002
0.08938 14.3677891488189 15.5248143918477 20.2739641826071 0.835366914205195 3.45431327996001 0.0893700000000001
0.08939 14.2053089023213 15.7077110962066 20.2283161943839 0.83190816197409 3.46497386277157 0.0893800000000001
0.0894 14.3396741989944 15.5215838875208 20.2944475863474 0.837517063309278 3.46476257762282 0.0893900000000001
0.08941 14.3382813408146 15.3822512520592 20.437820859833 0.833307904248059 3.46005062319309 0.0894000000000001
0.08942 14.2868167352548 15.0712944286718 20.3212583609976 0.819692183559552 3.42905631424019 0.08941
0.08943 14.2512101506833 15.3487519120137 20.2734044048583 0.832917654331551 3.42982015849536 0.0894200000000001
0.08944 14.2746878644785 15.3011244199995 20.4093667011916 0.829921816279713 3.45235131252778 0.0894300000000001
0.08945 14.1380878264759 15.4621028505932 20.5934869214977 0.823622342426047 3.49077772308269 0.08944
0.08946 14.2112912563943 15.5667251751395 20.4314592512464 0.829414009274527 3.49521894995387 0.0894500000000001
0.08947 14.2273607888569 15.4933022632926 20.3216718297177 0.838108955365608 3.46012500066478 0.0894600000000001
0.08948 14.3130533840268 15.5215042123238 20.30856162325 0.833111773371003 3.47018299539172 0.0894700000000001
0.08949 14.2847535708764 15.5592688712596 20.3060713507668 0.839793729089672 3.45222079320988 0.0894800000000001
0.0895 14.2089875446525 15.4147340298636 20.3301423526695 0.826597638482873 3.4634059436937 0.08949
0.08951 13.9579659253514 15.3536516102361 20.3372510345406 0.822051631458467 3.45625988428914 0.0895000000000001
0.08952 14.1884317661712 15.5913012634416 20.3873709328193 0.836442321636171 3.44804089760835 0.0895100000000001
0.08953 14.4324980032653 15.5322402693103 20.2418390698597 0.836035432977233 3.44199294703253 0.0895200000000002
0.08954 14.2548387359736 15.6507338994945 20.2431991688107 0.840944708599034 3.44887087013436 0.0895300000000001
0.08955 14.6238602668943 15.6188228978551 20.1517108922569 0.84628122012336 3.44618873211991 0.0895400000000001
0.08956 14.5330867388534 15.7522000524009 20.2635821603991 0.85533730275202 3.44423309282964 0.0895500000000001
0.08957 14.3407120939314 15.6050797596182 20.2782234061152 0.830004558343401 3.46145885102267 0.0895600000000001
0.08958 14.3588321116031 15.6438783870178 20.1305390420369 0.850360677015822 3.41245566374782 0.08957
0.08959 14.319206037532 15.4182149466951 20.3706510411371 0.82789744769721 3.45088748528117 0.0895800000000001
0.0896 14.1536186429315 15.4565935912862 20.4713434026524 0.830165904742173 3.44640668279586 0.0895900000000001
0.08961 14.3166214707087 15.3678248128546 20.3353486350408 0.836174772706937 3.44751971178261 0.0896000000000002
0.08962 14.2240335819329 15.4810862275343 20.3866329590487 0.829497637584467 3.48211862411331 0.0896100000000001
0.08963 14.3307664345644 15.5290474130859 20.3158630174494 0.841966615035541 3.4538620118532 0.0896200000000001
0.08964 14.2750586104641 15.5891786038437 20.4081492376148 0.84314154701109 3.45720533741837 0.0896300000000001
0.08965 14.4399614560534 15.3343112297834 20.3709150884822 0.835855743150504 3.44302049752397 0.0896400000000001
0.08966 14.5495094226891 15.6335805210466 20.2578234489133 0.847907944769303 3.43940177016555 0.08965
0.08967 14.4861889598004 15.6375568921745 20.2357273819227 0.84739974180197 3.45813143308295 0.0896600000000001
0.08968 14.2831285419632 15.3047976059001 20.3721616199613 0.826555290435183 3.46391978606651 0.0896700000000001
0.08969 14.2267123470854 15.4805535378723 20.4040485517124 0.833015058442352 3.4707289274788 0.0896800000000002
0.0897 14.3461202780276 15.5932651717221 20.2945943768222 0.844926850970255 3.45447626397029 0.0896900000000001
0.08971 14.3206556701499 15.5715700193605 20.174386069375 0.840669888675591 3.44590593049278 0.0897000000000001
0.08972 14.3132313116314 15.5724411135537 20.3856256466813 0.842016030347231 3.4558739789934 0.0897100000000001
0.08973 14.3279293073309 15.655945551685 20.3870917681045 0.843076586004971 3.45782480727007 0.0897200000000001
0.08974 14.0264897920285 15.3955459981785 20.3794100464151 0.826620654576165 3.45431356360429 0.08973
0.08975 14.137511433424 15.4150199427419 20.4554994788056 0.829410243040352 3.46526352074935 0.0897400000000001
0.08976 14.2890755306759 15.590229958694 20.3237634402271 0.839027225081211 3.44745703960959 0.0897500000000001
0.08977 14.1196229707381 15.5222292972054 20.4163823979156 0.833382288872188 3.4614649242451 0.0897600000000002
0.08978 14.1545446889695 15.4855765565924 20.2999894597856 0.828763960498801 3.45126904555326 0.0897700000000001
0.08979 14.1766647523807 15.755570239866 20.3564663543403 0.836382310371224 3.46959566408349 0.0897800000000001
0.0898 14.0748447966343 15.4685310234753 20.5330925362125 0.831407242529361 3.45751155743325 0.0897900000000001
0.08981 14.1729771484726 15.626873423749 20.3872285879524 0.832236057840147 3.47485063523582 0.0898000000000001
0.08982 14.2702137234603 15.5476161618349 20.2837148429537 0.840344054405595 3.44857291744341 0.0898100000000002
0.08983 14.4602743621429 15.7267004197245 20.2191613857482 0.843314180431427 3.46674745017251 0.0898200000000001
0.08984 14.68869461147 15.6406337612925 20.0931133026101 0.855022573387286 3.45193566622866 0.0898300000000001
0.08985 14.6632771144489 15.9757910273817 20.0228750269248 0.8668287126253 3.43785723593028 0.0898400000000002
0.08986 14.5590935791388 15.7945679429686 20.0901577693467 0.853008822553154 3.4505578859531 0.0898500000000001
0.08987 14.3827792634664 15.6475288811881 20.3376308552495 0.848992764904779 3.45397403783321 0.0898600000000001
0.08988 14.3456874403987 15.4017089275541 20.4599499395467 0.832393370752751 3.46184615982447 0.0898700000000001
0.08989 14.0599099589581 15.3232447878946 20.6224109314967 0.82723936468372 3.47936500423547 0.0898800000000001
0.0899 14.013772430746 15.3099531764047 20.5826445833009 0.819989263145215 3.48573726875945 0.08989
0.08991 14.0151485309637 15.4088151242822 20.6240371070639 0.83512571104174 3.48344010322087 0.0899000000000001
0.08992 14.0509082067938 15.4568351861477 20.5119867842529 0.834382828791867 3.46796176274749 0.0899100000000001
0.08993 14.0167731455271 15.5043222052143 20.4798008293209 0.832597556222397 3.45913810236336 0.0899200000000002
0.08994 14.5329280602779 15.712926496509 20.3034835349086 0.856125297257411 3.46267086108473 0.0899300000000001
0.08995 14.6081001892273 15.7275417110883 20.1383148023019 0.853609782980096 3.44035224846077 0.08994
0.08996 14.5861960152299 15.6531285445873 20.34712631201 0.848920525236939 3.45832225669582 0.0899500000000001
0.08997 14.4474249551153 15.7517102182824 20.3454226971865 0.850947866377043 3.44666953238305 0.0899600000000001
0.08998 14.5655988843988 15.8073062788878 20.2953100997115 0.849368174387767 3.48127227379416 0.0899700000000002
0.08999 14.510974044655 15.7284287038659 20.3006577001134 0.848505895381619 3.47296552559047 0.0899800000000001
0.09 14.3630369667367 15.7578052780726 20.4318301520295 0.845940215143107 3.46255189361577 0.0899900000000001
0.09001 14.5577260654857 15.470194665202 20.358341806461 0.845695830627213 3.43939107206938 0.0900000000000001
0.09002 14.2175499042551 15.3890943180278 20.3728366919506 0.828404723360657 3.44509189565313 0.0900100000000001
0.09003 14.3039876383527 15.4988780516336 20.3833995698409 0.842470594251525 3.43432961629573 0.09002
0.09004 14.5938948309833 15.5568263597604 20.4478265254656 0.850445307192622 3.46083542178809 0.0900300000000001
0.09005 14.3620536961416 15.6020562073482 20.4426681808536 0.842477731987952 3.46258873882056 0.0900400000000001
0.09006 14.2506826905958 15.5905297804625 20.5270734565329 0.835134733298702 3.47009351823666 0.0900500000000002
0.09007 14.3857964264006 15.5509916481839 20.384293583745 0.840746706323564 3.45981560918463 0.0900600000000001
0.09008 14.2138396917842 15.5974239663563 20.4838595591547 0.833266052407385 3.4870394709975 0.0900700000000001
0.09009 14.2758603202796 15.5666033242164 20.4423159477682 0.835488814770991 3.48495006461128 0.0900800000000001
0.0901 14.2391188614463 15.5777316793426 20.4092463970996 0.837288673653373 3.4682711657467 0.0900900000000001
0.09011 14.2554574270846 15.4464067930862 20.2884527799027 0.833702422426979 3.45454856799415 0.0901000000000002
0.09012 14.462314526568 15.6872719804036 20.2219216367547 0.843876240448453 3.45290174060113 0.0901100000000001
0.09013 14.5279163459067 15.8006514077719 20.1961162847516 0.851917031272831 3.46671692821565 0.0901200000000001
0.09014 14.6107035466992 15.8021562991154 20.2494398400485 0.844409535870147 3.46277601852153 0.0901300000000002
0.09015 14.772583084578 15.9025285152982 20.2468958697675 0.864086196290443 3.46319808579156 0.0901400000000001
0.09016 14.6830917009917 15.7299037304811 20.1365061697293 0.855130667279054 3.44026026140756 0.09015
0.09017 14.6434992427825 15.8283868369921 20.1572858937382 0.862312375814629 3.44658630858867 0.0901600000000001
0.09018 14.5189237385875 15.6720741082725 20.2825951202925 0.852763091053953 3.44327339917323 0.0901700000000001
0.09019 14.5271240712589 15.5790340195383 20.2943444391984 0.84601207798728 3.45529845091982 0.09018
0.0902 14.1370344315678 15.5982246542957 20.3950806977301 0.834694406296171 3.46830182524083 0.0901900000000001
0.09021 14.3187022953789 15.6039243112237 20.3386265659844 0.841074184285155 3.47415393278641 0.0902000000000001
0.09022 14.341766645767 15.4493790465696 20.4871990156243 0.825800011040977 3.50099649818403 0.0902100000000002
0.09023 14.3675831257108 15.3430351581636 20.5183950445322 0.835213200027077 3.48036069161149 0.0902200000000001
0.09024 14.1752137485845 15.483073745791 20.5495166059648 0.827480986852388 3.47324150380115 0.09023
0.09025 14.3108630893946 15.46070467764 20.3951322000118 0.834341406992837 3.47541644137662 0.0902400000000001
0.09026 14.3872954440856 15.7078341446103 20.3772237571766 0.841356410732991 3.48638452808755 0.0902500000000001
0.09027 14.4127922410869 15.5864280259912 20.3448194035377 0.842279991237973 3.46978191944453 0.0902600000000002
0.09028 14.4922651743302 15.3763991774125 20.3242568203132 0.837931330067899 3.45984197032053 0.0902700000000001
0.09029 14.6757392143887 15.4414980144232 20.4096868549843 0.845156770268576 3.47072333146659 0.0902800000000001
0.0903 14.8420279108974 15.7056078701768 20.2677163767578 0.854943246041503 3.46355885145111 0.0902900000000001
0.09031 14.6639629346871 15.7233582291405 20.2549082084314 0.851446865908988 3.46563323357183 0.0903000000000001
0.09032 14.4875599389449 15.6436696795222 20.3107436316447 0.840141921245306 3.46615911873597 0.09031
0.09033 14.4271637911703 15.6363530040883 20.3657451558744 0.842758634498874 3.4663253917864 0.0903200000000001
0.09034 14.5024091038709 15.5202081829469 20.4122817010347 0.844690671598088 3.46908814837437 0.0903300000000001
0.09035 14.513365284725 15.6910171148834 20.3169292856068 0.844287378698165 3.47197969271581 0.09034
0.09036 14.4498195609117 15.6828984561476 20.4606517744968 0.843577797408305 3.48310171404511 0.0903500000000001
0.09037 14.2438664314475 15.3871663885101 20.5954791661498 0.828195482267395 3.47132854874951 0.0903600000000001
0.09038 14.0954453825805 15.3120210862929 20.5817105401712 0.829711601362315 3.44963310021833 0.0903700000000001
0.09039 14.2750991369407 15.5650758378651 20.4888862206631 0.836694176389334 3.4731216481306 0.0903800000000001
0.0904 14.390336739001 15.7062054377477 20.4170568384516 0.85109008914977 3.46403503185347 0.0903900000000002
0.09041 14.4314157308804 15.71484559426 20.2887128302679 0.843493810242052 3.46320904655835 0.0904000000000001
0.09042 14.5522401659366 15.7202095101144 20.369938349718 0.848024889810071 3.46744110660708 0.0904100000000001
0.09043 14.8176198742507 15.9223706995374 20.2679009144922 0.868000453575275 3.46752926261497 0.0904200000000002
0.09044 14.630538912755 15.7677220339908 20.2318192509516 0.845899803569328 3.46609675393734 0.0904300000000001
0.09045 14.5405981728725 15.930463020565 20.2000987101197 0.863987955377198 3.43708890758234 0.09044
0.09046 14.6925217454715 15.9225374886366 20.1825516672791 0.856325580882305 3.46161364221535 0.0904500000000001
0.09047 14.5045579115787 15.854868935752 20.2253234782945 0.852522993670631 3.45662350112869 0.0904600000000001
0.09048 14.2654043557814 15.6458839293207 20.414229552489 0.836214921524345 3.47357824046929 0.09047
0.09049 14.3186628428761 15.5231646527767 20.5799865330256 0.836445128264262 3.48738410095796 0.0904800000000001
0.0905 14.400681972658 15.5755141052999 20.5304162484597 0.845255730400305 3.47447265511572 0.0904900000000001
0.09051 14.4132300856818 15.6353905393653 20.3965172393912 0.840129627123046 3.47510253598456 0.0905000000000002
0.09052 14.0793522648334 15.5033436495776 20.5002095270246 0.826519440621226 3.47339713940702 0.0905100000000001
0.09053 14.3627605497538 15.5675105194723 20.4275620526845 0.83485855680201 3.4674509180735 0.09052
0.09054 14.4198778243248 15.3820442708033 20.5813541885591 0.835952610155712 3.47810745790707 0.0905300000000001
0.09055 14.2818184836991 15.4173616704331 20.5337898580715 0.837013904691503 3.4669676251093 0.0905400000000001
0.09056 14.3749211073448 15.6078048851083 20.4917906204813 0.842744689079726 3.48016524542888 0.0905500000000002
0.09057 14.5822540820432 15.6660052600951 20.4094393407011 0.849903003222441 3.46962468481148 0.0905600000000001
0.09058 14.6538839624889 15.8169506995489 20.1673493570386 0.84627875942166 3.47312042904695 0.0905700000000001
0.09059 14.3161808768452 15.7621032477423 20.3898649641773 0.847398236680914 3.47088052618545 0.0905800000000002
0.0906 14.4939481556708 15.536095979712 20.3842284595812 0.837693303697551 3.47119201784297 0.0905900000000001
0.09061 14.5319783143103 15.6967679058933 20.5128265143022 0.858227553727157 3.44774981025395 0.0906
0.09062 14.3538732195111 15.6536272159293 20.5619573090627 0.844141328183616 3.48400929444857 0.0906100000000001
0.09063 14.4309347477936 15.9040799988604 20.3931190188 0.848383100136371 3.47938380505278 0.0906200000000001
0.09064 14.6161180609986 15.9855566053925 20.3055622441375 0.867305288806223 3.47464053984444 0.09063
0.09065 14.528708089758 15.8739899158588 20.2814083926198 0.846030065623223 3.49015759642647 0.0906400000000001
0.09066 14.3745096410654 15.7486135477385 20.4989668046231 0.849215990750185 3.48975908358806 0.0906500000000001
0.09067 14.5384441922759 15.5954211452451 20.5286084148948 0.846242432820342 3.48451443036918 0.0906600000000001
0.09068 14.4011416619563 15.4136884030195 20.3995825718334 0.835900075253139 3.44992935099815 0.0906700000000001
0.09069 14.3737782491163 15.5447368558738 20.5029734042421 0.838492649287175 3.49006511807536 0.0906800000000002
0.0907 14.5657631465396 15.5809456608544 20.4329440934646 0.839778208289158 3.48991341762941 0.0906900000000001
0.09071 14.5233583693075 15.8037336915601 20.490773744504 0.846525175665452 3.48544265139462 0.0907000000000001
0.09072 14.4782420393745 15.5937440824366 20.4162780805976 0.847700067619276 3.46330278109704 0.0907100000000002
0.09073 14.4831780374911 15.5818851926176 20.4015585107416 0.844980620202793 3.44863660647664 0.0907200000000001
0.09074 14.4289352705151 15.6952505520383 20.4476460966995 0.843670616110144 3.46840806258751 0.0907300000000001
0.09075 14.5561070410862 15.8130584400064 20.4227747872425 0.856737784436707 3.46331459081121 0.0907400000000001
0.09076 14.4648847817219 15.8746700847753 20.4607942724672 0.85016927476614 3.47128716411451 0.0907500000000001
0.09077 14.547650039222 15.6543416052547 20.462355398029 0.851546531787323 3.463603105832 0.09076
0.09078 14.3155469404046 15.5594581394478 20.5196559700816 0.830865380747472 3.49444295614218 0.0907700000000001
0.09079 14.2686835214086 15.6697303773009 20.5808142030982 0.839434518820812 3.51409906498251 0.0907800000000001
0.0908 14.5799159986991 15.738189622388 20.354886629342 0.85299945647772 3.46876839281255 0.0907900000000002
0.09081 14.4848398403792 15.7016906447081 20.4643822762279 0.848429170393509 3.48400570163512 0.0908000000000001
0.09082 14.4016112143684 15.4863592413592 20.455334414955 0.841093424586017 3.48037960145818 0.0908100000000001
0.09083 14.5680480816753 15.5534691650953 20.3848792528405 0.841144466374864 3.48179634629935 0.0908200000000001
0.09084 14.3998781103318 15.6888776481602 20.6155287249922 0.83862114152952 3.50230052665801 0.0908300000000001
0.09085 14.3202722009884 15.4734367290057 20.7854070779214 0.840223369865643 3.48906978449521 0.0908400000000002
0.09086 14.3865882596575 15.7314349031922 20.5048032452018 0.844557197712535 3.49764329562029 0.0908500000000001
0.09087 14.4600288003293 15.6300681800409 20.457857515612 0.846717607284999 3.49927759957716 0.0908600000000001
0.09088 14.419654693021 15.8030127787141 20.474479215462 0.846137337027855 3.4837197880731 0.0908700000000002
0.09089 14.5317399560733 15.9609139025331 20.4791551635284 0.854192151407763 3.49859314950251 0.0908800000000001
0.0909 14.4657425151425 15.8840647826102 20.3691452415384 0.853885312461424 3.4835146208401 0.0908900000000001
0.09091 14.6404508070867 15.7924759597585 20.2628580533918 0.850429746478991 3.47184070419474 0.0909000000000001
0.09092 14.7844868428667 15.9727836032956 20.2284380253154 0.868496837991696 3.46661903191193 0.0909100000000001
0.09093 14.7210765170255 15.9810680978586 20.3780853020729 0.864506494074707 3.47470958907836 0.09092
0.09094 14.6938140012642 15.9632305338855 20.2415840754221 0.864286509496718 3.46877325792181 0.0909300000000001
0.09095 14.7318056570781 15.8819680484661 20.3298718262306 0.85918976819282 3.49070027261953 0.0909400000000001
0.09096 14.4344780881122 15.7256195405284 20.4502711165424 0.842345773527699 3.51105075635473 0.0909500000000002
0.09097 14.4511881951395 15.6580288494271 20.6388570434171 0.843817934693071 3.49973856406731 0.0909600000000001
0.09098 14.3508287226876 15.4829910749333 20.575172497804 0.834172953887454 3.50206062652193 0.0909700000000001
0.09099 14.4016170315491 15.606371215166 20.5660940638272 0.844478692472701 3.48692793958093 0.0909800000000001
0.091 14.5694931551148 15.7869934363853 20.4799581978091 0.848165394330213 3.50118489965935 0.0909900000000001
0.09101 14.3120974122358 15.7018523519792 20.4208992887861 0.836773384064656 3.48582788540448 0.0910000000000002
0.09102 14.2872105339146 15.7643669586409 20.5399296711829 0.840842851429769 3.49943413660128 0.0910100000000001
0.09103 14.4492927294274 15.7893509736917 20.6234336005157 0.850247283852233 3.50511162332128 0.0910200000000001
0.09104 14.7049380053264 16.078083107145 20.3898765434016 0.863005665359632 3.49204264440898 0.0910300000000002
0.09105 14.678415494213 16.0967835921332 20.3441068840688 0.859148180854982 3.48080001202858 0.0910400000000001
0.09106 14.5838213427557 15.8111157492357 20.4519027263056 0.846785465185523 3.51695970191126 0.09105
0.09107 14.4561369386969 15.8292501676378 20.4774094000327 0.852471768186458 3.4941451728856 0.0910600000000001
0.09108 14.5478368762062 15.7356888556892 20.5225497473313 0.847818332658004 3.4969762132917 0.0910700000000001
0.09109 14.4095678055732 15.6205336561382 20.5037078512327 0.841803982938221 3.4790821498258 0.0910800000000002
0.0911 14.5521092043763 15.7438691299172 20.4863807112422 0.851685089178665 3.4767309516635 0.0910900000000001
0.09111 14.5511313630481 15.6217831747041 20.6206543760857 0.844110599093796 3.494911249426 0.0911000000000001
0.09112 14.5574146871801 15.696265951296 20.587276194544 0.852807877795397 3.48063534264055 0.0911100000000001
0.09113 14.6339966799343 15.9813060017944 20.4571491454952 0.862357959323699 3.48265917077158 0.0911200000000001
0.09114 14.4093604977827 15.6660941565248 20.6531484477509 0.841337379815137 3.50162270308543 0.0911300000000002
0.09115 14.5973349173606 15.7037640611384 20.6771479363378 0.85231765804835 3.50256961379643 0.0911400000000001
0.09116 14.4715808283069 15.8650956822937 20.5453107369522 0.854079734012031 3.48520662347413 0.0911500000000001
0.09117 14.675145440074 15.8829242589193 20.4295018476936 0.854176663484851 3.49795843235026 0.0911600000000002
0.09118 14.5687911669734 15.6685304051042 20.5104571317388 0.839559497830654 3.50868490938015 0.0911700000000001
0.09119 14.5022632047434 15.4430251693309 20.5945031345151 0.840406610512792 3.48841216143393 0.0911800000000001
0.0912 14.5832474908091 15.7699414066538 20.6768418302918 0.851604787915981 3.50648647940671 0.0911900000000001
0.09121 14.6942089275381 15.8229880842901 20.4970524611468 0.861054763090491 3.48734979879997 0.0912000000000001
0.09122 15.057794818689 15.8902948682353 20.2805129530587 0.864056744132348 3.47563734676725 0.09121
0.09123 14.7947524486335 16.0457803174073 20.2742570754326 0.870973484773058 3.47305172482136 0.0912200000000001
0.09124 14.6371556229596 15.90151199795 20.3839455283238 0.860965187793306 3.49192790738404 0.0912300000000001
0.09125 14.4004199016692 15.7411458549846 20.602573106525 0.845586847110077 3.49351096419454 0.0912400000000002
0.09126 14.568271567451 15.6561028157509 20.5980828951641 0.851191187917583 3.4902200482364 0.0912500000000001
0.09127 14.5157659877068 15.6996153473187 20.6801522799306 0.849063428488824 3.49018017636175 0.09126
0.09128 14.4637533237774 15.5571464425401 20.5647423054665 0.843623902085434 3.49640006858815 0.0912700000000001
0.09129 14.2870451495304 15.7380570427858 20.7190654030122 0.838657838590476 3.52861970699761 0.0912800000000001
0.0913 14.547356508341 15.9028678824058 20.5409382129338 0.854177452493568 3.50746043589719 0.0912900000000002
0.09131 14.4398040778559 15.7252181411306 20.5782160253323 0.845514772209459 3.50614198048169 0.0913000000000001
0.09132 14.7470975616771 16.0224726854105 20.3803969496295 0.866104475809935 3.49269122056439 0.0913100000000001
0.09133 14.7510626335479 15.9702886736345 20.4473905708436 0.8479827887244 3.5276638311138 0.0913200000000002
0.09134 14.5184363656095 15.8901292591223 20.6165038359602 0.860565769910733 3.49677111929577 0.0913300000000001
0.09135 14.4582732344973 15.7232592689348 20.4390240958134 0.840167850925438 3.50653027155909 0.09134
0.09136 14.5646438200197 15.7366109596789 20.6603387297638 0.84613408227529 3.51852447200011 0.0913500000000001
0.09137 14.6609032061659 15.8569880693452 20.5350440949696 0.857365879272376 3.50727810744053 0.0913600000000001
0.09138 14.485736846785 15.7717905376482 20.5634981702585 0.846176553866436 3.50711511460057 0.09137
0.09139 14.5041502788037 15.6895501269101 20.6339934730001 0.851178592195274 3.50490380165535 0.0913800000000001
0.0914 14.7390177835826 15.8853763465319 20.4805258241548 0.862398826703146 3.50303855354852 0.0913900000000001
0.09141 14.8842687649992 15.6347578577701 20.5105333072665 0.855584488029747 3.49177569910489 0.0914000000000001
0.09142 14.7722339694793 15.8142095404835 20.5302024104299 0.854255775548228 3.50941804303838 0.0914100000000001
0.09143 14.6552284912966 15.6490076240288 20.5139113194727 0.85411377375468 3.48763345062682 0.09142
0.09144 14.5648307535827 15.5421020177606 20.645774925446 0.845441178337245 3.49434274068603 0.0914300000000001
0.09145 14.4572904260412 15.5482026843489 20.6431567020769 0.844819796549138 3.50262843145104 0.0914400000000001
0.09146 14.3888210517163 15.5035191766769 20.7391207302498 0.838538096806537 3.49952112646662 0.0914500000000002
0.09147 14.2623669134393 15.5767401541266 20.6285809166489 0.836809984550998 3.49334801562448 0.0914600000000001
0.09148 14.5727637558373 15.8408140456935 20.5991362690845 0.849156169841915 3.51538441373201 0.0914700000000001
0.09149 14.5838833481714 15.9207412938761 20.516743296123 0.854517313467166 3.51361962514274 0.0914800000000001
0.0915 14.7940629070949 16.0169339732052 20.4180688122587 0.86191814867861 3.50115095747105 0.0914900000000001
0.09151 14.7468689881177 15.8449798504018 20.4195684156996 0.864499473962064 3.4699905754049 0.0915
0.09152 14.8049712686252 15.8955626934098 20.3743368531952 0.864734143455968 3.47791771605517 0.0915100000000001
0.09153 14.664854384745 16.0020352696338 20.4581705920581 0.85869939951925 3.49400001950888 0.0915200000000001
0.09154 14.5824079101365 15.9147136175396 20.4754608693496 0.853852453598636 3.49736159707262 0.0915300000000002
0.09155 14.7154629538527 16.0025290830848 20.3799239600217 0.861199661790862 3.48419853338093 0.0915400000000001
0.09156 14.6156020273234 15.8662819350127 20.5597492277563 0.857485106235763 3.50344707047405 0.0915500000000001
0.09157 14.5169906956677 15.9386182261237 20.6020512223904 0.856182989989476 3.4991901290411 0.0915600000000001
0.09158 14.5570867120297 15.6536284496599 20.5861133781248 0.846922954042095 3.49089496126179 0.0915700000000001
0.09159 14.5006435019793 15.7421823243096 20.6167800298015 0.843584734245029 3.52045621611408 0.09158
0.0916 14.5681216258768 15.7511945778036 20.6170696303586 0.849185678043765 3.49970854461846 0.0915900000000001
0.09161 14.6667177973336 15.6163780816765 20.6962164394713 0.847762127924039 3.5027557476892 0.0916000000000001
0.09162 14.7452322484062 15.691899215841 20.576074688048 0.854535222965274 3.49110136826629 0.0916100000000002
0.09163 14.6862239084087 15.7491379827404 20.5473034591264 0.84739382947078 3.50077330632557 0.0916200000000001
0.09164 14.4847786530215 15.7248748554625 20.5045091475135 0.842477413887989 3.49819395892157 0.0916300000000001
0.09165 14.5882846655568 15.733148639578 20.6125474682695 0.852272617399012 3.51593197564481 0.0916400000000001
0.09166 14.5516813992477 15.6062603322589 20.6895022431192 0.848530527405007 3.51629292295905 0.0916500000000001
0.09167 14.5270643759144 15.6791531671743 20.6490855331523 0.848084593875317 3.52748933206685 0.09166
0.09168 14.6989655199915 15.8841378643677 20.5175214769292 0.851567419849953 3.52511615113246 0.0916700000000001
0.09169 14.5720799803241 15.6919285337237 20.6866596091775 0.84639677379352 3.52152414613457 0.0916800000000001
0.0917 14.7247849286499 15.9081324800849 20.5134175432961 0.866095396599742 3.49377747337134 0.0916900000000002
0.09171 14.7766156999135 15.8886049069833 20.5562787908378 0.857729416806809 3.50859754234478 0.0917000000000001
0.09172 14.3105777627488 15.5790316241462 20.7221010349905 0.835728952393905 3.50137629021777 0.0917100000000001
0.09173 14.4805088545547 15.8648201358602 20.6427654421842 0.857738973580779 3.50816096738308 0.0917200000000001
0.09174 14.5838485980917 15.7455190190929 20.559272102293 0.849727910062403 3.49308712137064 0.0917300000000001
0.09175 14.4375584199028 15.7034390571393 20.5263401312463 0.847120728590202 3.48752541935161 0.0917400000000002
0.09176 14.627144483973 15.7623005581896 20.54058968127 0.857819365313448 3.48844728079355 0.0917500000000001
0.09177 14.9596611430802 16.0300876521606 20.4889189364515 0.873360353408292 3.50502341204299 0.0917600000000001
0.09178 14.795004409379 15.9476100118548 20.513699612883 0.863426517745394 3.51402924954574 0.0917700000000002
0.09179 14.7579026217524 15.8886090653805 20.546998147393 0.860392625619185 3.49245613458392 0.0917800000000001
0.0918 14.7645556720486 16.1265851382277 20.3204265503463 0.866310757610424 3.49119311960507 0.09179
0.09181 14.8168197991009 16.0553754269033 20.3749919201377 0.862063631981541 3.49622766945799 0.0918000000000001
0.09182 14.7840492409249 15.8936708760236 20.4960605890264 0.855248042238127 3.50950217790249 0.0918100000000001
0.09183 14.6852186467734 15.9483570780223 20.5999726345607 0.860817764573642 3.51946955390407 0.09182
0.09184 14.735808963897 15.9435368151562 20.6205666234629 0.857981987081806 3.51596807809618 0.0918300000000001
0.09185 14.4848854993691 15.9892175007921 20.7034312688828 0.85371309943009 3.51670526161847 0.0918400000000001
0.09186 14.5364935287495 15.7902876969413 20.6982072098385 0.84954644692189 3.51694256972609 0.0918500000000002
0.09187 14.6151403050033 15.7861611768511 20.5351734017082 0.855520307072846 3.49970184413209 0.0918600000000001
0.09188 14.676752794122 15.7427409033526 20.6552510563633 0.857856680763896 3.48900225898715 0.09187
0.09189 14.6311881382532 15.6262554052236 20.6707539197574 0.848031050163127 3.50834924028738 0.0918800000000001
0.0919 14.5096074887729 15.7818331239524 20.5241232056461 0.849262572392184 3.49406228358073 0.0918900000000001
0.09191 14.629998349376 15.7967733204839 20.6653383807433 0.849920341702207 3.52131477896115 0.0919000000000002
0.09192 14.7308847182389 15.9859333699385 20.5761446327821 0.860353077621609 3.51774584459036 0.0919100000000001
0.09193 14.7420132899796 15.8384972298941 20.5361315726326 0.861193166126151 3.47843464259029 0.0919200000000001
0.09194 14.6570357774834 15.879007212053 20.5523382368641 0.853412724531261 3.51352725564998 0.0919300000000002
0.09195 14.6285323818366 15.8854363965475 20.5399678711531 0.856250494848447 3.52087861833524 0.0919400000000001
0.09196 14.6690864256891 15.8356050471403 20.59825546478 0.854707847102587 3.51799202689796 0.09195
0.09197 14.6605009612053 15.9416310063964 20.5496469529562 0.860551794316209 3.5007086153865 0.0919600000000001
0.09198 14.7223231227885 15.9837305097857 20.505119052679 0.856685089720736 3.53003899348583 0.0919700000000001
0.09199 14.7568566553979 15.7936615964464 20.6043837036021 0.853492964972868 3.52159006482947 0.0919800000000002
0.092 14.7775089195063 15.7741337805446 20.5042248933436 0.85948279040198 3.49001894529494 0.0919900000000001
0.09201 14.563523234097 15.7093897103947 20.677033401367 0.845338301468814 3.53018671857091 0.0920000000000001
0.09202 14.4285885573912 15.8361334737849 20.7297771836223 0.852099311592433 3.51806952288059 0.0920100000000001
0.09203 14.6462315006251 16.2541468177979 20.5035299852138 0.872418479280925 3.50739642760342 0.0920200000000001
0.09204 15.0991939904084 16.1984200498452 20.3615106244987 0.878558380188809 3.50210194093071 0.0920300000000002
0.09205 14.8589352597591 16.026010568676 20.3747920803021 0.867438972963406 3.49851164469056 0.0920400000000001
0.09206 14.6453368923654 15.8494203823862 20.5616713115805 0.854868232558307 3.51681366142989 0.0920500000000001
0.09207 14.6221213291064 15.7639742120608 20.686496437302 0.856076055394012 3.4975581327202 0.0920600000000002
0.09208 14.9508171977953 15.9099402274932 20.4777044100929 0.857298520301537 3.52536186501228 0.0920700000000001
0.09209 14.6917817143867 15.8739715798828 20.6914104958965 0.857660609292549 3.54245369608906 0.0920800000000001
0.0921 14.8128819527339 15.9645505205515 20.4553721409864 0.862558237252928 3.50923246589004 0.0920900000000001
0.09211 14.9739020803602 16.0586841525959 20.5141778653115 0.868834045001359 3.5311812322833 0.0921000000000001
0.09212 14.7669729131404 16.0327200578607 20.4478222374939 0.866102543163822 3.51782705941638 0.09211
0.09213 14.6764843091883 15.9273040496585 20.6128250681465 0.855255700420049 3.52935554797344 0.0921200000000001
0.09214 14.4295046323555 15.7636010892149 20.6832100040758 0.846315343398761 3.5277171498654 0.0921300000000001
0.09215 14.3716047306702 15.587697490612 20.8152674203755 0.836909452385303 3.53842470089455 0.0921400000000002
0.09216 14.7080413450882 15.816924870239 20.7435494984621 0.850480634428201 3.5425543184434 0.0921500000000001
0.09217 14.5373148654045 15.8589137620153 20.8130130698329 0.857278998748932 3.54351157906804 0.09216
0.09218 14.6801769094815 15.8332887540035 20.6988130193617 0.85773877294522 3.53150496513099 0.0921700000000001
0.09219 14.6950362891545 15.85142350412 20.6842605468268 0.860804060497031 3.51000515259424 0.0921800000000001
0.0922 14.7221522948539 15.7637917822697 20.604781308326 0.854500544784159 3.51233273136293 0.0921900000000002
0.09221 14.784557432317 15.8350112307133 20.6792278927663 0.85829636811152 3.53550443187115 0.0922000000000001
0.09222 14.708901929541 15.8071396133132 20.615678801542 0.863275182752758 3.50323933137821 0.0922100000000001
0.09223 14.6127723295111 15.686353243893 20.7164036102172 0.845525707209517 3.52083963373043 0.0922200000000001
0.09224 14.7295540527615 16.0723961380766 20.7327116999986 0.861347611415853 3.53840060260124 0.0922300000000001
0.09225 14.9393019193995 16.1583585196199 20.5193808320267 0.873021495824807 3.51191042365035 0.09224
0.09226 14.8978220720217 16.0351050558773 20.5697238388174 0.856477896195862 3.53960726776859 0.0922500000000001
0.09227 14.8734138014317 16.1702897307324 20.6103323335292 0.874294379209684 3.52767771055489 0.0922600000000001
0.09228 14.8959818046398 16.008084344831 20.5833590993062 0.86160098453999 3.53058895581197 0.09227
0.09229 14.7325271991251 15.9808551085792 20.67908002864 0.867174454787464 3.51487743282019 0.0922800000000001
0.0923 14.62539570924 15.9795176358272 20.6595360924412 0.85116517078927 3.54128101139086 0.0922900000000001
0.09231 14.7659590467764 16.0675291919105 20.5296981674898 0.867310944475285 3.50182209053417 0.0923000000000001
0.09232 14.8500677638304 16.0211131493197 20.5712578819224 0.86158094609096 3.518721038959 0.0923100000000001
0.09233 14.6606295666037 16.1556684527534 20.6633692246094 0.864836764809494 3.52548412145185 0.0923200000000002
0.09234 14.6538162441585 15.9475247401686 20.7404363056593 0.858909897955605 3.52841922215503 0.0923300000000001
0.09235 14.6723425456263 15.6752335656656 20.6686668415509 0.851850095945749 3.52233840667766 0.0923400000000001
0.09236 14.6081897880844 15.749588292356 20.8313783408538 0.851678970560187 3.5409539694731 0.0923500000000002
0.09237 14.5117660394086 15.8130685025475 20.8674653472103 0.845787640218958 3.53823386692002 0.0923600000000001
0.09238 14.628064978061 15.8977745889651 20.6857978320108 0.8606475290557 3.51481599579423 0.09237
0.09239 14.842572383264 16.0893610871293 20.5468928283028 0.861877746315251 3.52713867529581 0.0923800000000001
0.0924 14.9645426728225 15.8852798833401 20.5601819713529 0.866340394827172 3.52161161681273 0.0923900000000001
0.09241 15.0557044044488 16.0975305409835 20.5569161979873 0.873694931133708 3.52261822701185 0.0924
0.09242 14.9490267392884 15.9336446146066 20.6973856612589 0.869889016280839 3.52133219051334 0.0924100000000001
0.09243 14.9630954479791 16.0848225708645 20.6346695111318 0.872298692608613 3.5320131450824 0.0924200000000001
0.09244 14.8910065180209 16.0029961754864 20.6460199525145 0.861350699284646 3.54526037090367 0.0924300000000002
0.09245 14.6292858551415 15.7683871729101 20.8018027056551 0.855848196466524 3.54294142094684 0.0924400000000001
0.09246 14.4685522826104 15.7872350745917 20.8544710029806 0.847360923165431 3.5308808006922 0.09245
0.09247 14.6749609016303 16.0364654633223 20.8319672258515 0.860120667651102 3.53563586134673 0.0924600000000001
0.09248 14.4538956353546 15.8400720871923 20.8258075992376 0.852402465124295 3.53201148740978 0.0924700000000001
0.09249 14.6199320237268 15.8046244956456 20.8179208587925 0.845636009031148 3.54265517904188 0.0924800000000002
0.0925 14.6717348394284 15.8103426970817 20.6440899128809 0.862076603634651 3.50778980142029 0.0924900000000001
0.09251 14.6873572502623 15.6905220632723 20.8303255429525 0.85586724734919 3.521990197857 0.0925000000000001
0.09252 14.7139552808236 15.9521321026086 20.8495534406634 0.860734195758027 3.55420720926937 0.0925100000000001
0.09253 14.7542975862704 16.0250735815609 20.7056822914358 0.858615160695318 3.55874899344499 0.0925200000000001
0.09254 14.7133868718484 16.1595296454661 20.6470579806786 0.862469236963302 3.5482942043577 0.09253
0.09255 14.7128438442508 16.2985426561937 20.6209445962545 0.87254837442854 3.54120853658386 0.0925400000000001
0.09256 14.7254688911965 15.9498991674048 20.6831818720102 0.856373665697809 3.54177892554223 0.0925500000000001
0.09257 14.9555237260997 16.0342897630669 20.6036982813104 0.870876848222447 3.52068553440113 0.09256
0.09258 14.8588738717677 16.1212937612321 20.5710605287856 0.865655432788385 3.52485806976478 0.0925700000000001
0.09259 14.6897933367078 15.9471158809549 20.6313102497932 0.853138200596762 3.54363694299241 0.0925800000000001
0.0926 14.8757995947253 15.9972214357543 20.6602067636895 0.85619196166615 3.54870517451502 0.0925900000000001
0.09261 15.0058466741993 15.8786117998095 20.7298385689128 0.8663528680855 3.53929139931925 0.0926000000000001
0.09262 14.7836474487559 15.8572935866644 20.7052018313601 0.859025807928273 3.53050522705422 0.0926100000000002
0.09263 14.8320123130569 16.0765945218397 20.5659774186422 0.871559980748209 3.51604773964212 0.0926200000000001
0.09264 14.655168237654 15.9094833091602 20.6894890582859 0.853912599068914 3.53153047598155 0.0926300000000001
0.09265 14.6721008959872 15.7905370805364 20.5005936059447 0.850881445033129 3.49077317368219 0.0926400000000002
0.09266 14.3446928715184 15.8432086717329 20.6674907286626 0.849072172072579 3.50262843707941 0.0926500000000001
0.09267 14.5674048290726 15.7108670181685 20.5935006114014 0.852067711122888 3.49662320122758 0.0926600000000001
0.09268 14.8866647856739 15.5613036236444 20.5834267259788 0.854031998153936 3.49113579718008 0.0926700000000001
0.09269 15.1368958799859 15.4796496877508 20.331720434167 0.857688392132914 3.47078599239231 0.0926800000000001
0.0927 15.021139337852 15.6463228701708 20.2722467617675 0.862554394341379 3.46164961891633 0.09269
0.09271 15.0899542700896 15.8660728619381 20.2959355094451 0.8629752833781 3.48913662938273 0.0927000000000001
0.09272 14.6928487029994 15.6909014020603 20.4526721092463 0.852251090998397 3.49896558762258 0.0927100000000001
0.09273 14.737924127238 15.3523563783036 20.0833304220717 0.836893934902151 3.44391507473099 0.0927200000000002
0.09274 14.3823049577156 14.9461322510368 20.1549772126718 0.812434493778759 3.43243076267186 0.0927300000000001
0.09275 14.1024248234273 14.6488564707767 19.8097980528376 0.804249111876011 3.34811750081378 0.0927400000000001
0.09276 14.2396455581519 14.6579592165174 19.7240822323366 0.806702579965563 3.33768239203522 0.0927500000000001
0.09277 14.3296352376718 14.5965650263842 19.1917646342383 0.814862129976361 3.28720928936205 0.0927600000000001
0.09278 14.4624864325306 14.2444397708983 18.6206418578224 0.807466789574179 3.21745998700969 0.0927700000000002
0.09279 14.3979085941188 13.9860394445292 18.1260555207433 0.802927992043897 3.11585767799205 0.0927800000000001
0.0928 14.3103275349248 13.6405684812662 17.6475829370395 0.780943504568502 3.05949698021344 0.0927900000000001
0.09281 13.9980859979142 12.8648886029913 17.2879128968354 0.747668724784952 2.98970493013341 0.0928000000000002
0.09282 13.7015888613935 11.9254948618296 17.1457858009697 0.712764071376071 2.92734269334257 0.0928100000000001
0.09283 13.1891817167284 11.092454646587 16.2959462834585 0.676508190874471 2.78649469696964 0.0928200000000001
0.09284 12.3106754704221 10.0455121815666 15.5872432949202 0.625433519256857 2.63810691923247 0.0928300000000001
0.09285 11.7602091097371 9.06484570067692 14.6438875509263 0.583956007818507 2.46337096510696 0.0928400000000001
0.09286 10.9938536453815 8.24040794073052 13.8461735299139 0.539617035929799 2.31236426730539 0.09285
0.09287 10.3735317880946 7.3039974768399 13.1305123556596 0.486089207606123 2.20674415824947 0.0928600000000001
0.09288 9.55903997518281 6.67999325123983 12.0085082837669 0.454887262910459 2.02947815327619 0.0928700000000001
0.09289 8.90924584333678 5.50266615614294 10.6798149153735 0.403992506960347 1.79436275922216 0.0928800000000002
0.0929 8.82242056102551 4.75281865935732 9.28548970230149 0.374734649005679 1.62483958842421 0.0928900000000001
0.09291 8.39800796361482 4.18711169089798 8.67556642053321 0.358696322799487 1.54094783486292 0.0929000000000002
0.09292 7.40195763594087 3.06527104772054 8.02984522493644 0.28423696752117 1.39634036747359 0.0929100000000001
0.09293 6.97228782261209 2.66630339043074 7.3727447016526 0.268491436144513 1.31480246211261 0.0929200000000001
0.09294 6.52270230208816 2.20507795485545 6.86015349949072 0.23883399668704 1.21586054564962 0.0929300000000002
0.09295 5.56428190343333 1.63971427348249 6.49814507081314 0.196756933035489 1.1309691015593 0.0929400000000001
0.09296 4.95318562518583 1.81395424028559 6.23707453602407 0.185511782108582 1.05569020210415 0.0929500000000001
0.09297 4.92789509180297 2.27953079362545 5.91135388762893 0.197897682941292 0.99134151250858 0.0929600000000002
0.09298 4.04260084501045 2.2262886409393 5.71728339574433 0.177207452893876 0.949240038502151 0.0929700000000001
0.09299 4.29543234362648 2.42430292356869 5.89131897392102 0.189723017327904 0.964027853680497 0.09298
0.093 3.9398517463257 2.5432673781091 5.9490358541123 0.175844127741719 0.992751818937438 0.0929900000000001
0.09301 3.58832994170309 2.39436775752348 6.00052435977745 0.164516290252881 0.957027437431941 0.0930000000000001
0.09302 3.18838557389566 2.29957736689737 5.71978020916736 0.152576810544777 0.907470377754441 0.0930100000000002
0.09303 3.24840407694409 2.74754381330039 5.72505132138117 0.163648922159624 0.905402264909654 0.0930200000000001
0.09304 3.14397636592745 2.67377896015711 5.71708485264477 0.156272448774089 0.913790814511994 0.0930300000000001
0.09305 3.31834987370805 2.68263865754434 5.78335872823838 0.178190356956138 0.902855842156824 0.0930400000000002
0.09306 3.38328275100995 2.77213530065015 5.65326302162249 0.165670310284661 0.938688785790715 0.0930500000000001
0.09307 3.56730698634763 2.55493228048822 5.67849500054972 0.17552239545145 0.895571872815939 0.0930600000000002
0.09308 3.79664561173493 2.23220730241842 5.64216691221001 0.171593108707117 0.905679133402989 0.0930700000000001
0.09309 3.89154084535084 2.21157210134785 5.42472124568764 0.174149952741028 0.878445041113937 0.0930800000000001
0.0931 4.16658925624053 2.10848837073637 5.45107151720861 0.173526300956768 0.920334110216998 0.0930900000000002
0.09311 4.37733871184133 2.22720324481695 5.41419983593468 0.189072297860204 0.893041801276312 0.0931000000000001
0.09312 3.98242017080977 1.91990411321133 5.18372598976218 0.167997317384268 0.870796243580859 0.0931100000000001
0.09313 4.2991586931699 2.05011076525683 5.01543398694236 0.179334643646716 0.846904030589841 0.0931200000000001
0.09314 4.21391622263269 2.05488996980526 5.08027220749509 0.175765360593422 0.872673833563724 0.0931300000000001
0.09315 4.13195206730111 2.08649312890939 5.18051442004836 0.172449708117841 0.854521032413794 0.09314
0.09316 4.21934076984914 2.30952867481817 5.21632552394266 0.19175256275091 0.841200834086827 0.0931500000000001
0.09317 4.16318992679463 2.38248556932834 5.15061183307936 0.180649784936165 0.860027800178279 0.0931600000000001
0.09318 3.8632489886803 2.14090434045794 5.16413479673832 0.163708687025665 0.860155535111139 0.0931700000000002
0.09319 3.6790508201969 1.94336346603202 5.22396079129865 0.158350116258907 0.86643296825458 0.0931800000000001
0.0932 3.64932421613873 1.89444278957529 5.29988565605904 0.155234576922411 0.864619095197139 0.0931900000000001
0.09321 3.48177813076848 1.90960584126359 5.35609627721873 0.14867652053498 0.858798294409494 0.0932000000000001
0.09322 3.76806691239305 2.27992482957933 5.55063126554872 0.174123335211923 0.891914164758686 0.0932100000000001
0.09323 3.84142476347772 2.26837918345414 5.64050537093314 0.173152120902536 0.919706042175923 0.0932200000000002
0.09324 3.94413799396378 1.93780098647655 5.59449354878662 0.163264149008147 0.918535445280853 0.0932300000000001
0.09325 4.18675162562224 2.35627598513809 5.35819170104477 0.183566981896698 0.898603279035889 0.0932400000000001
0.09326 4.2339851636761 2.23795953728415 5.33704944867825 0.187136061513328 0.899875385057663 0.0932500000000002
0.09327 4.14813961119576 2.11519876830784 5.44366266484138 0.169056164790215 0.90434374325735 0.0932600000000001
0.09328 3.86273793892149 1.94563372753438 5.18204671366589 0.166506986735448 0.857608136370698 0.09327
0.09329 3.72485604241377 1.98376780603152 5.2530786619627 0.163611083495515 0.865040284369423 0.0932800000000001
0.0933 3.98933864753901 2.10287069307485 5.27344812163344 0.17534971163023 0.86739191092007 0.0932900000000001
0.09331 3.90410742950928 2.33303898791174 5.53883329277747 0.170576717860489 0.916611094797259 0.0933000000000002
0.09332 4.02189424840226 2.16283279029142 5.4535710023639 0.171771749080193 0.906216997951553 0.0933100000000001
0.09333 3.86595887463455 2.0421335160823 5.52014651604016 0.16810369309094 0.893268203813078 0.0933200000000001
0.09334 3.25872441340888 1.74602781363792 5.58134462657086 0.131390599138825 0.890183382264018 0.0933300000000001
0.09335 3.24765098061957 1.75715581746548 5.80635084623066 0.138366160002956 0.89281844859501 0.0933400000000001
0.09336 3.33380691883064 1.76812799156321 5.71931196934987 0.138733378337581 0.912625006839434 0.09335
0.09337 3.07531619078174 1.64438243909208 5.89642869218402 0.130157402233267 0.966720331244532 0.0933600000000001
0.09338 3.28161461676072 1.96570816611525 5.83435210231347 0.146081864953846 0.906623574208111 0.0933700000000001
0.09339 3.49550507154863 2.15454462196781 5.57078371832724 0.164091670428172 0.865337131334197 0.0933800000000002
0.0934 3.51972889617927 2.43256337079178 5.50575598527965 0.171495956326051 0.892838571282337 0.0933900000000001
0.09341 3.88296868674002 2.05495502278525 5.33451492040542 0.165338136863252 0.873240239457058 0.0934000000000001
0.09342 3.95790038831515 1.88025788901338 5.27750871754296 0.164770752558191 0.876075077640603 0.0934100000000001
0.09343 4.24750463104765 2.16717066107307 5.30537627824364 0.179658952053776 0.878771884687907 0.0934200000000001
0.09344 4.07125302270295 2.01062335766624 5.18545127426016 0.171437716442613 0.863473244403331 0.09343
0.09345 4.05611881748496 2.29797269248209 5.10775943331522 0.18029758776055 0.852240345427695 0.0934400000000001
0.09346 3.65108879769444 2.61003320402804 5.26481003657417 0.172752852191059 0.863115495757625 0.0934500000000001
0.09347 3.61388414181395 2.63423134102468 5.41493434000218 0.175886937991653 0.892837258237227 0.0934600000000002
0.09348 3.76452024592609 2.84131006959526 5.39363181056502 0.182601391905301 0.880197879221508 0.0934700000000001
0.09349 3.7628471697295 2.60305109960099 5.38846354274461 0.176599978754974 0.884776997282892 0.0934800000000001
0.0935 3.51602711642838 2.2122698199934 5.26174441814872 0.164605764224907 0.856703685405712 0.0934900000000001
0.09351 3.73393518596916 2.24256079927337 5.36663094298716 0.169508200620135 0.874572045672557 0.0935000000000001
0.09352 3.54386690738879 2.34544699838375 5.65013156318078 0.167192761896363 0.897469950697042 0.0935100000000002
0.09353 3.31576630391409 2.17156195879202 5.58963939968184 0.159411122030449 0.868438953634221 0.0935200000000001
0.09354 2.87164411792239 1.94838316701742 5.74621965759575 0.129132655556758 0.885055269551989 0.0935300000000001
0.09355 2.7701986433427 2.00217617438442 5.6580058641349 0.135503074417824 0.898275253162868 0.0935400000000002
0.09356 3.23100251242144 1.9507070164917 5.74357202620738 0.141715436640234 0.918818879719472 0.0935500000000001
0.09357 3.67088283736807 2.05360999126667 5.65278935673969 0.158423596573054 0.912086020486855 0.0935600000000001
0.09358 3.88646580694815 1.58554114801916 5.81159166472321 0.158008336738474 0.961324881152836 0.0935700000000001
0.09359 3.92232524880848 1.98966934179721 5.64269467681379 0.169143778221232 0.913326678591695 0.0935800000000001
0.0936 3.86583067018691 2.02928841023012 5.28362787849061 0.168083719287135 0.86996406381758 0.09359
0.09361 3.8278787922759 1.98326785255077 5.51401078241425 0.162178211167678 0.910365657788551 0.0936000000000001
0.09362 3.75641731573899 2.54474171133236 5.30455482959137 0.180501366088122 0.840080271242293 0.0936100000000001
0.09363 3.93590055918761 2.53367900584573 5.23937468138869 0.181929546241419 0.875669615099315 0.0936200000000002
0.09364 3.81966261202993 2.23219841390154 5.2254320147195 0.16448899405481 0.859673058986036 0.0936300000000001
0.09365 3.97796653072557 2.31607637332053 4.93513750133929 0.180758719415501 0.856300256649145 0.09364
0.09366 4.03937148153056 1.77191791238586 5.07359151874269 0.16763064297165 0.826461674111567 0.0936500000000001
0.09367 4.30137753269737 2.09258529681334 5.19906201725451 0.180265842011675 0.864288351300329 0.0936600000000001
0.09368 4.29652800612403 2.0955649405426 5.33053859712527 0.185069887008681 0.862561242995304 0.0936700000000002
0.09369 3.88828211361633 1.83997083422051 5.28926577384571 0.162584896319224 0.847574912954391 0.0936800000000001
0.0937 3.83198046914865 1.81926899275049 5.39435378967571 0.153331656101571 0.895276496670429 0.0936900000000001
0.09371 4.03296357874956 2.04447136672219 5.42352293627793 0.167831559075981 0.902905654041019 0.0937000000000002
0.09372 4.26945903178331 2.22237151237355 5.57791078987582 0.179922222930133 0.914542434561407 0.0937100000000001
0.09373 4.01972151405999 2.514869160563 5.58386623536006 0.186829925383988 0.931677415340978 0.09372
0.09374 4.08306808061924 2.33821012327646 5.76419174686636 0.181689231353574 0.97516104209731 0.0937300000000001
0.09375 3.66953868745843 2.06991676470113 5.73963221848922 0.163316787511701 0.895820395048038 0.0937400000000001
0.09376 3.30329842738006 1.73812870895728 5.61138602258141 0.142464726498937 0.891080564133288 0.09375
0.09377 3.57444710494537 1.73366078570867 5.52796161910061 0.142793180207288 0.896118320581036 0.0937600000000001
0.09378 3.58132187350504 1.73131142776856 5.38825708011655 0.150410006462382 0.872101877805816 0.0937700000000001
0.09379 3.65453792462074 1.65408167804461 5.34360873289245 0.148238219507482 0.854339705708543 0.0937800000000002
0.0938 3.63461100008858 1.98331648780386 5.08523250963842 0.162737343928859 0.829511945292672 0.0937900000000001
0.09381 3.49125564225082 2.11189488973701 4.9801807060441 0.161937947012591 0.811690191543277 0.0938
0.09382 3.75218072610428 1.87748838887606 5.11741103236829 0.148078985403494 0.823427405475199 0.0938100000000001
0.09383 3.6755356560258 1.94951446069399 5.23404269358454 0.161859940100547 0.856699094832077 0.0938200000000001
0.09384 3.52754244395112 1.53584780850854 5.52091577350915 0.143529100184696 0.876398206728332 0.0938300000000002
0.09385 3.47480487761379 2.08961313595728 5.52876129892707 0.154500759254587 0.892366241729269 0.0938400000000001
0.09386 3.68967846298844 1.80294012812057 5.69833736285896 0.144408828038683 0.936855771921222 0.0938500000000001
0.09387 4.08335649568335 2.16558710115542 5.76726123282325 0.183623323698568 0.93869153302721 0.0938600000000002
0.09388 4.09729931696871 2.80996690360847 5.63473055475301 0.198650429261416 0.936149549898466 0.0938700000000001
0.09389 3.80041014557765 2.51461354234061 5.61545661241003 0.178546076663822 0.902707791654566 0.09388
0.0939 3.75728711859285 1.98319752530849 5.58216739554164 0.153476004974404 0.91369429221101 0.0938900000000001
0.09391 3.94745938544853 2.14416022483591 5.17278428262778 0.168930083194057 0.871678324453176 0.0939000000000001
0.09392 3.96892194563914 2.04509613546603 5.07263953658139 0.171774839378512 0.861595118019444 0.0939100000000002
0.09393 4.03724890128375 2.16166090868969 4.91508021043282 0.173224617624145 0.836265474959479 0.0939200000000001
0.09394 4.01641210984493 1.88957587210766 5.15126587422111 0.153974607108152 0.884915495666904 0.0939300000000001
0.09395 4.28798718560208 2.37883307449373 5.20787552126137 0.187310209406943 0.866152467582237 0.0939400000000001
0.09396 4.29304786769458 2.36576678837264 5.26222660086454 0.188699336863333 0.874828546144488 0.0939500000000001
0.09397 4.30463979398223 2.22736959236405 5.2460994548359 0.187027323419127 0.880387934628135 0.0939600000000002
0.09398 4.1590084052893 2.3459774424531 5.51327232756908 0.179047874852149 0.913311764153185 0.0939700000000001
0.09399 3.99885648787066 2.6502481054068 5.57967581098771 0.201060041451867 0.878842890306401 0.0939800000000001
0.094 3.84476311280132 2.38043426212816 5.69816138098433 0.175189373362314 0.9100351371049 0.0939900000000002
0.09401 3.86671013076575 2.0916108112315 5.73644188893446 0.165759852874809 0.93063783911142 0.0940000000000001
0.09402 3.68642011574494 1.82083410996494 5.74165094251724 0.150069070603364 0.919120103749446 0.0940100000000001
0.09403 3.79464109769726 1.95661218934158 5.48590820603891 0.166795705883973 0.916055019272157 0.0940200000000001
0.09404 3.89371108646075 1.6190396284177 5.4282637733316 0.152274964643416 0.897958277525815 0.0940300000000001
0.09405 3.93598841417962 1.7649737253193 5.39185795541281 0.15421858172939 0.88895878034076 0.09404
0.09406 3.72489454970556 1.84352803076609 5.33792440562876 0.156731177349204 0.872642845939741 0.0940500000000001
0.09407 3.79687295478143 2.25206396722667 5.17245415655463 0.166377326477618 0.850339736882539 0.0940600000000001
0.09408 3.87250263498339 2.03292633273071 5.15710718922353 0.170795169234736 0.820222632655656 0.0940700000000002
0.09409 3.857034859995 1.77652429449728 5.35131962894704 0.157030609419287 0.873291982711156 0.0940800000000001
0.0941 3.77134318161117 2.01073724213235 5.52431950339344 0.151150421711208 0.918272064920651 0.09409
0.09411 4.02746474894982 2.21429106128098 5.61496637181605 0.183720923928457 0.892155933699106 0.0941000000000001
0.09412 3.82442966683967 2.06614763088072 5.57060611641964 0.166936752868884 0.91871945871671 0.0941100000000001
0.09413 3.75247874481344 2.06291313597833 5.49397409016174 0.169946418312604 0.903264559545042 0.0941200000000002
0.09414 3.45441622970396 1.86796554190918 5.66960017355472 0.153955018628581 0.913741645534067 0.0941300000000001
0.09415 3.63206965494372 1.75476005992937 5.6521639027389 0.143287418595449 0.920677711752647 0.0941400000000001
0.09416 3.55735137163607 1.55145863415119 5.56329829376651 0.148715132857967 0.867469677425609 0.0941500000000002
0.09417 3.64176830677014 2.11787086919476 5.41079709051553 0.159906163272371 0.899808620554583 0.0941600000000001
0.09418 3.38483989205842 1.92744801005891 5.40078128099768 0.140529330639255 0.892163048511785 0.09417
0.09419 3.94470286774474 1.97011999688505 5.32343370789548 0.163741116995241 0.862404351851998 0.0941800000000001
0.0942 4.15231965989446 2.68663397401524 5.41455314183566 0.197728384061464 0.896201430883192 0.0941900000000001
0.09421 4.18646478297634 2.6348225510033 5.38734164380439 0.193339030480792 0.895007518460613 0.0942
0.09422 3.93940052626917 2.73679501916693 5.48180309414029 0.188273877431248 0.902834800060182 0.0942100000000001
0.09423 4.2706182463367 2.59117308581951 5.2343849167944 0.191904399253972 0.882871520565209 0.0942200000000001
0.09424 4.49202176743644 2.59813193267661 5.17809301214674 0.199801154034712 0.867944214647846 0.0942300000000001
0.09425 4.47364988841981 2.42303270026832 5.22104462839609 0.198918566823135 0.880213837335239 0.0942400000000001
0.09426 4.22798813000913 2.37632673508915 5.5208089938455 0.188177087533307 0.893292061974327 0.0942500000000002
0.09427 3.85218672176556 2.09100669130709 5.38067416504135 0.152620642392796 0.891978440230314 0.0942600000000001
0.09428 3.67682214372087 2.01202033937804 5.5982085669015 0.161450847187968 0.912951921163043 0.0942700000000001
0.09429 3.53749377954163 1.86270835825248 5.8051552948631 0.149917230065917 0.908412651998408 0.0942800000000002
0.0943 3.64224893300285 2.21667664676925 5.51158564507753 0.161119379208112 0.911699416508105 0.0942900000000001
0.09431 3.57301539142976 2.23865462386048 5.53653355355237 0.158876591956983 0.889825809843151 0.0943000000000001
0.09432 3.61473450297621 1.8859035529615 5.59707305602886 0.15448513839149 0.88704401713763 0.0943100000000001
0.09433 3.42875546111031 1.93510488532383 5.7208673398604 0.145969424841188 0.894041464218422 0.0943200000000001
0.09434 3.53054908093901 1.92043503861013 5.64078999311884 0.155564659930687 0.89713154575882 0.09433
0.09435 3.44055609559538 1.94785693493881 5.55812958286862 0.156045532288902 0.908975969210631 0.0943400000000001
0.09436 3.46434925752137 1.77351069646421 5.52482356602451 0.141302077707221 0.861971432390244 0.0943500000000001
0.09437 3.62714792777153 1.71097980013138 5.34975386616078 0.141966387341168 0.876955112991998 0.0943600000000002
0.09438 3.94575304811964 1.75132062947682 5.33784040293551 0.160302594243629 0.904738398105003 0.0943700000000001
0.09439 3.91965063436691 1.81308490562866 5.57092521226698 0.16365922315237 0.9039700020763 0.09438
0.0944 3.67069132536209 1.87036968516579 5.57069938354296 0.159028143426007 0.880735135951903 0.0943900000000001
0.09441 3.39893056029598 1.79936446340316 5.49873540730912 0.144206554523511 0.870751749316547 0.0944000000000001
0.09442 3.72267990929369 1.92450910298086 5.73398243713587 0.152659605343128 0.93865414673636 0.0944100000000002
0.09443 3.90744337740322 1.74741426656219 5.78212751560706 0.158613316029422 0.922253234199904 0.0944200000000001
0.09444 3.90120500432081 1.94975321975947 5.74628200281379 0.168840954949847 0.917971157535833 0.0944300000000001
0.09445 3.6881259750977 2.31262566240783 5.46191813195338 0.162199164830127 0.909787496649346 0.0944400000000001
0.09446 3.83141875580268 2.24965498673805 5.41618644548187 0.174821821235525 0.879266861696093 0.0944500000000001
0.09447 3.95490493563618 2.52288980421874 5.40756107728008 0.174004474589658 0.88583672777735 0.09446
0.09448 4.04246601869547 2.46720698972254 5.48741117330761 0.18944837357038 0.892992047566844 0.0944700000000001
0.09449 4.4244511999268 2.37178130714799 5.3778335445632 0.190091703899695 0.917795503342858 0.0944800000000001
0.0945 4.11980427027282 2.69189146518944 5.20483427669713 0.187541591037407 0.874393561788441 0.09449
0.09451 3.89595539362314 2.71152261425066 5.13910728039284 0.186875000662613 0.853982777654625 0.0945000000000001
0.09452 3.95135720848221 2.44139658397845 5.31385228711271 0.178906733562321 0.882328912391935 0.0945100000000001
0.09453 3.89027336513423 2.29027555652262 5.4350481483947 0.16876650821553 0.897140425330304 0.0945200000000001
0.09454 4.03439963859548 1.93132078906148 5.71872470707582 0.177172026311649 0.917092132142792 0.0945300000000001
0.09455 4.15250206192675 2.27740965799124 5.46611983597766 0.185894408309758 0.876094733115272 0.0945400000000002
0.09456 3.9441780608639 1.82582358068258 5.46970861963221 0.154312735670548 0.901727542400744 0.0945500000000001
0.09457 3.72258093805454 2.01824757219789 5.6773788663834 0.156068972705905 0.915789201791226 0.0945600000000001
0.09458 3.66424118033799 1.89488900040532 5.7667224224971 0.154800878846744 0.92116728868377 0.0945700000000002
0.09459 3.74354870620324 1.82344659974404 5.5883410744017 0.148539554178515 0.919941048926868 0.0945800000000001
0.0946 3.56861018372086 1.67535912529174 5.6393601475969 0.144958658169066 0.899081064633307 0.0945900000000001
0.09461 3.65041208645729 2.020467087117 5.54426701639853 0.158759913169971 0.89765386233591 0.0946000000000001
0.09462 3.70970874983331 2.26885613262374 5.37928325361882 0.159670054042644 0.88637826299347 0.0946100000000001
0.09463 3.82952541589458 2.60120892056675 5.31453445798554 0.179082407585755 0.863776700372285 0.09462
0.09464 3.90492751487896 2.25801613295736 5.13803518186243 0.168939477946251 0.860175793323279 0.0946300000000001
0.09465 4.00888386130952 2.13131559546501 5.11079925144662 0.177985212797816 0.828430172077432 0.0946400000000001
0.09466 4.12171280495251 2.0297839850147 5.23307776022254 0.17308535991724 0.90349808251443 0.0946500000000002
0.09467 4.18445747481228 1.96174808389479 5.26535658671335 0.168171711238236 0.882355412040876 0.0946600000000001
0.09468 4.01774550392982 1.85951477706227 5.46434702932756 0.166623831834698 0.905942399068788 0.0946700000000001
0.09469 3.77408118797393 2.10632588736994 5.3401760575617 0.170959069753146 0.867232999164377 0.0946800000000001
0.0947 4.00527478822968 2.02968157123913 5.53872932655615 0.161986017125574 0.895000886372229 0.0946900000000001
0.09471 4.06658630013142 2.13851397119892 5.65276527819211 0.168957064039999 0.927813740175475 0.0947000000000002
0.09472 4.01592301625247 2.08488743785938 5.56405728085631 0.173044159039601 0.934753276593188 0.0947100000000001
0.09473 4.24004952931837 1.76339979803982 5.81953599494946 0.164719758234355 0.958399407558797 0.0947200000000001
0.09474 4.11601647600059 1.94547290276185 5.80151694421805 0.165206134533931 0.94196719746598 0.0947300000000002
0.09475 3.90976261910134 2.06056481861807 5.75736646395741 0.173037555468547 0.915101887200712 0.0947400000000001
0.09476 3.97101695237769 1.96621643595493 5.54312495849441 0.161798097138375 0.900287163475028 0.0947500000000001
0.09477 3.93109874664463 2.20344798030819 5.36227033916628 0.167176941478744 0.894346603968314 0.0947600000000001
0.09478 3.91717625777627 2.00643871967375 5.22094742194704 0.157688940952505 0.86790149552048 0.0947700000000001
0.09479 3.99455720910115 2.22414835328449 5.23217800488412 0.17857890890074 0.869260419154307 0.09478
0.0948 3.86953149217618 2.20118784035522 5.36739819001573 0.164233397054636 0.886282828781831 0.0947900000000001
0.09481 4.1587690563636 2.21389038756577 5.23416128846084 0.184632912204206 0.865468281652857 0.0948000000000001
0.09482 4.05091531122163 2.22443765043508 5.09477837546912 0.184624011143264 0.855946829032793 0.0948100000000002
0.09483 3.78226022284731 2.2493749321802 5.21220711387594 0.15891681597405 0.859831961863299 0.0948200000000001
0.09484 3.73767226155875 2.31023030933026 5.45827738702782 0.167665613066804 0.904266497976856 0.0948300000000002
0.09485 3.79989625116259 2.12129380934928 5.73466098701994 0.15938167286243 0.940119683993658 0.0948400000000001
0.09486 3.82785591083017 2.22558449256183 5.78200176712674 0.165647489264281 0.923675271757795 0.0948500000000001
0.09487 3.78180966645707 2.14055672039082 5.66526799371057 0.170450891357785 0.904756980370405 0.0948600000000002
0.09488 3.59135164843321 1.91594261727145 5.51287080403086 0.150667048096029 0.908855408233851 0.0948700000000001
0.09489 3.81826272453908 1.91327723170248 5.72238677271701 0.164818508606321 0.928181924932767 0.0948800000000001
0.0949 3.97976034511059 2.10809334024659 5.66904318672285 0.170280597604345 0.933704846713792 0.0948900000000002
0.09491 3.82785299703071 2.38063325960947 5.63803486908451 0.174438591559509 0.913621444937929 0.0949000000000001
0.09492 3.85243409959907 2.31562731337968 5.33044926723672 0.171963149061809 0.87317785472002 0.09491
0.09493 4.00539559910507 1.97006373856324 5.07978638895298 0.16917041636535 0.848856400153956 0.0949200000000001
0.09494 3.94331416505915 2.11438177942829 5.17311342657573 0.175855004842622 0.862415369606161 0.0949300000000001
0.09495 4.02472598177134 2.10841795691669 5.29257152499155 0.167581183714829 0.881513839893752 0.0949400000000002
0.09496 3.93205839865713 2.08484693886864 5.39457386861398 0.172334569519155 0.887472127684389 0.0949500000000001
0.09497 4.21768028823253 2.10592724782225 5.33147205688568 0.187026015949151 0.889293450986328 0.0949600000000001
0.09498 4.32565431325792 1.9081847560227 5.2030588421176 0.171206640527442 0.865944126636254 0.0949700000000002
0.09499 4.24176005356501 1.85304693529378 5.42493479753355 0.164080344615728 0.896261494164577 0.0949800000000001
0.095 4.23197705767707 1.94186878002414 5.26607264179271 0.171134786861419 0.908293938172077 0.0949900000000002
0.09501 4.43987606966794 2.01134323869804 5.58346962109009 0.188310768839116 0.9185390851085 0.0950000000000001
0.09502 4.28895190095153 2.12496865544233 5.68568878305452 0.176403623109284 0.935003766577093 0.0950100000000001
0.09503 4.02139272518127 1.4961234896023 5.61879332616754 0.155275004206515 0.921180955083214 0.0950200000000002
0.09504 4.05302995380965 1.9173389609203 5.75602276231092 0.164014747761897 0.929403393202947 0.0950300000000001
0.09505 3.81865878210922 2.01007600576925 5.5918374217486 0.162267892207451 0.911485391918573 0.0950400000000001
0.09506 3.95243467947732 2.30883074172862 5.69939427548918 0.181749562378815 0.908294892617994 0.0950500000000001
0.09507 3.84165994618373 2.57911305892558 5.37294283883143 0.176023254363353 0.890369083313032 0.0950600000000001
0.09508 4.26402287607596 2.50854054481983 5.33859724650118 0.186083957574048 0.894775657535477 0.09507
0.09509 3.96534067897285 2.37205638861411 5.0051464941667 0.17508908045513 0.845755479898762 0.0950800000000001
0.0951 3.92327290488927 2.61183346761716 5.08327719423032 0.180171177273918 0.858728396508843 0.0950900000000001
0.09511 4.2121323404759 2.77544779200516 5.24567755262835 0.197102735363596 0.860407439547721 0.0951000000000002
0.09512 3.67176969679388 2.95824669574008 5.19659457630044 0.196884417686229 0.834093034815242 0.0951100000000001
0.09513 3.37429798624689 2.91319955605184 5.30702312414415 0.16860883796768 0.860639092471462 0.0951200000000001
0.09514 3.4396444145784 2.53352392052427 5.63650926641416 0.168341466816196 0.90074789709891 0.0951300000000001
0.09515 3.51597076791883 2.53276041229146 5.56033285203711 0.166452146753551 0.908090676265535 0.0951400000000001
0.09516 3.59033813632701 2.39988186859494 5.58575228852337 0.16503423274931 0.912123723961389 0.0951500000000002
0.09517 3.35144159608581 1.95109772192311 5.81022199614334 0.146710430212541 0.926523318013286 0.0951600000000001
0.09518 3.28941084504416 1.96220543129578 5.93457388818775 0.150182196177839 0.934065958625044 0.0951700000000001
0.09519 3.07290705186746 1.68233698632083 5.91108557636697 0.127502094462282 0.912663704086743 0.0951800000000002
0.0952 3.56479050537245 1.64290561020159 5.65479167799739 0.143708502912941 0.904277411446214 0.0951900000000001
0.09521 3.65616039242475 2.0253789137563 5.46237784836522 0.163393374422222 0.880915635675981 0.0952
0.09522 3.7585145899151 2.03719898560794 5.51720613966772 0.157118710337826 0.915480893507727 0.0952100000000001
0.09523 3.98593662981094 1.80157469821858 5.50296828074332 0.158823204708987 0.916587142337218 0.0952200000000001
0.09524 3.98131784531878 2.00756543654051 5.41566367841541 0.174029696292213 0.891397923787096 0.0952300000000002
0.09525 3.93843150944498 2.22280025683907 5.55390899573219 0.169925356604741 0.929681591884984 0.0952400000000001
0.09526 4.11853773321815 2.22433097520303 5.63048164211803 0.173754887450285 0.912854987658698 0.0952500000000001
0.09527 4.16388512880015 2.34844287647168 5.38888793032725 0.181125101024084 0.908997313829009 0.0952600000000002
0.09528 4.35176068270498 2.24891079183408 5.46008571884876 0.190244028273121 0.901324669314611 0.0952700000000001
0.09529 4.23106241100772 2.2276679620245 5.27428200202529 0.184697997836794 0.875333914388922 0.09528
0.0953 4.21665608061543 2.24044243352704 5.3473685560221 0.176400246034405 0.894542682413791 0.0952900000000001
0.09531 4.15766919394836 2.30577345866671 5.28440387099549 0.18151491576701 0.905610441044998 0.0953000000000001
0.09532 4.2564246645837 2.00743838644618 5.27508362941241 0.180194664309091 0.889043769451641 0.0953100000000002
0.09533 3.65392617014713 2.06311958051948 5.48077985543603 0.157441880050928 0.893244387224771 0.0953200000000001
0.09534 3.55746829342496 2.03734039778774 5.62270035066809 0.157966978414106 0.935769409229398 0.0953300000000001
0.09535 3.97439519412096 2.36397477442721 5.64300760088839 0.177829624711478 0.918490796123983 0.0953400000000001
0.09536 4.06260007523549 2.5947988372846 5.50842155329715 0.187536220203174 0.897972925873095 0.0953500000000001
0.09537 4.2336492722868 2.69412717699358 5.6317636531615 0.191496686852792 0.925177406605332 0.09536
0.09538 4.18637232098956 2.40861764399117 5.6103027526337 0.183266118848699 0.916596106827478 0.0953700000000001
0.09539 4.22832151777276 2.41074465431965 5.55146858720006 0.182626205012234 0.916958408450755 0.0953800000000001
0.0954 3.94782480205998 2.43229735085526 5.5848251123356 0.181267908844416 0.908670637422883 0.0953900000000002
0.09541 3.65828238232961 2.46438482568176 5.48149170852755 0.164991708669184 0.905799370473203 0.0954000000000001
0.09542 3.28294538441508 2.50734500370366 5.55035793553353 0.162203517537712 0.895237302085184 0.0954100000000001
0.09543 3.63676315664169 2.51358616126206 5.55285988148168 0.173625696918224 0.888253329145107 0.0954200000000001
0.09544 3.59327000088458 2.36063795139087 5.60664184858809 0.172512698266416 0.898417533726706 0.0954300000000001
0.09545 3.79047774277056 2.1170970654096 5.66627468457473 0.167483174826348 0.899428797594228 0.0954400000000002
0.09546 3.66129527489936 1.8752647375682 5.49525325599555 0.149082989205183 0.886120270626277 0.0954500000000001
0.09547 3.82405390352433 2.32017267279359 5.28107545832776 0.177891458837276 0.848700115051211 0.0954600000000001
0.09548 3.9181734602912 2.22079551546869 5.25673066064576 0.178005051535871 0.854076700915348 0.0954700000000002
0.09549 3.85669868245149 2.46942736396238 5.40786968559489 0.173176520963889 0.896844826881864 0.0954800000000001
0.0955 4.06179822339547 2.53079231891149 5.29638137624303 0.17752134523206 0.88380010150582 0.09549
0.09551 3.66639071607584 2.26860663633163 5.4369829331976 0.162497008114267 0.89120259301942 0.0955000000000001
0.09552 3.90973913734307 2.17245288346971 5.42238535338917 0.16835177482744 0.87307438344554 0.0955100000000001
0.09553 3.92623819886712 1.77930035716208 5.48052416847533 0.160491315892125 0.890725308205453 0.09552
0.09554 3.95708314965627 2.11281250322336 5.37920925587054 0.178631131761599 0.885666361014474 0.0955300000000001
0.09555 4.06258045324018 2.39532339748366 5.24770209141816 0.173654092092041 0.878383152868506 0.0955400000000001
0.09556 3.92825128987903 2.29884341886466 5.5488804880739 0.174812260382053 0.90035663757232 0.0955500000000002
0.09557 4.00624532407687 2.4122949655593 5.33524448940413 0.182592975161177 0.889731866056265 0.0955600000000001
0.09558 3.97027811301975 2.49076151598244 5.44693111136047 0.183627107606894 0.897209025601085 0.09557
0.09559 3.98900691016582 2.21379258445342 5.6183569276502 0.17446405608404 0.922560496918388 0.0955800000000001
0.0956 3.97452770111442 1.92677767559404 5.46988044033389 0.158620942984964 0.880990151690533 0.0955900000000001
0.09561 3.96437279971966 1.99392890912827 5.2743103935336 0.175400191510442 0.894038834458418 0.0956000000000002
0.09562 4.29286530187192 2.53272889862022 5.4605253361572 0.185551993277996 0.91409583126818 0.0956100000000001
0.09563 4.4728136035004 2.4532308468951 5.48116372605631 0.196324743907448 0.929234898015545 0.0956200000000001
0.09564 4.20951938084598 2.57222766427335 5.35532165637037 0.196488686412572 0.886182985372389 0.0956300000000002
0.09565 4.08734740312179 2.64436921115348 5.37506748441008 0.185129534370073 0.91879029590022 0.0956400000000001
0.09566 4.00716890842503 2.46300137740991 5.47462301901776 0.179853362711412 0.909992640032131 0.09565
0.09567 3.6588457436689 2.27068817218549 5.19252264378723 0.167857236416908 0.845874167169767 0.0956600000000001
0.09568 3.92160680707969 2.32068623690442 5.43417813244522 0.176194326278357 0.898162551829113 0.0956700000000001
0.09569 3.81367936786723 2.15404982983916 5.34998855182199 0.165905717057328 0.873563546374725 0.0956800000000002
0.0957 4.05110803594418 2.3501246255093 5.46517732487358 0.179036712038271 0.883262030615641 0.0956900000000001
0.09571 4.00572448340789 2.28289757854218 5.54033013477349 0.173304237002629 0.918753078348234 0.0957000000000001
0.09572 3.74519226848451 2.19204508333287 5.64911083268307 0.165805397396884 0.897527982799963 0.0957100000000002
0.09573 3.9428488921772 2.30444491026831 5.9044355186405 0.175167440732422 0.927512022297325 0.0957200000000001
0.09574 3.66389049556577 2.24341389960841 5.82065097115007 0.16498836998502 0.927766465533594 0.0957300000000002
0.09575 3.36087278017745 1.73764678638343 5.82058641685761 0.138827490298897 0.928612923538367 0.0957400000000001
0.09576 3.70815517965822 2.12204189916625 5.75571601165552 0.164639538321872 0.916021044335261 0.0957500000000001
0.09577 4.15646354401375 2.08191422946065 5.54398110471008 0.180420084716885 0.936061342375574 0.0957600000000002
0.09578 4.46350309594069 1.96310252688407 5.6101554873417 0.180889347238448 0.928428599844134 0.0957700000000001
0.09579 4.46253077752853 2.10675281391591 5.40457599992278 0.188274415906318 0.905379092570455 0.0957800000000001
0.0958 4.38396967912145 2.02053682906446 5.26358706690449 0.182037519849092 0.881565406828707 0.0957900000000002
0.09581 4.21753324195258 2.20873225510846 5.42732555235082 0.180359909811304 0.893994067573438 0.0958000000000001
0.09582 3.97085377876726 2.3669509313207 5.07842102758177 0.181293894942019 0.861761580058984 0.09581
0.09583 3.93524612331265 2.24881351592109 5.376731102658 0.175421720577386 0.882899969660184 0.0958200000000001
0.09584 3.72581919852832 2.50297444668495 5.44046083278594 0.180268572550224 0.882816691423093 0.0958300000000001
0.09585 3.88562475163944 2.66132769904943 5.46465241732204 0.189639986330964 0.893999640745966 0.0958400000000002
0.09586 4.06076561656595 2.65828808480842 5.66219381025799 0.186698534171678 0.94309663570611 0.0958500000000001
0.09587 3.96170127885243 2.18025274849377 5.69861944891638 0.169716102853179 0.926956687306907 0.0958600000000001
0.09588 3.99369697079705 2.30614144065378 5.44498747396857 0.179766418555298 0.886801513428866 0.0958700000000001
0.09589 3.85098861528367 2.59475457347437 5.46937404934512 0.181164493458599 0.904100039689948 0.0958800000000001
0.0959 3.85530088875716 2.09511970926346 5.57949062381494 0.165849993598236 0.888229062362467 0.0958900000000002
0.09591 3.71925768936254 2.06975149800186 5.58700700371256 0.162152965437477 0.903522883493254 0.0959000000000001
0.09592 3.88193444045533 2.58632928417301 5.51155061407984 0.17640024535683 0.91499916637631 0.0959100000000001
0.09593 4.00674667373324 2.62142448620183 5.59402898195624 0.194802778989084 0.870511648606074 0.0959200000000002
0.09594 3.84478068235659 2.75441552990745 5.15546016011702 0.186756554246255 0.850499460491476 0.0959300000000001
0.09595 3.92154277123161 2.4813886815495 5.17231287842455 0.187713025803037 0.842524378908072 0.0959400000000001
0.09596 3.70226793982885 2.2690959189198 5.1943329240341 0.162568133110614 0.868276943331123 0.0959500000000001
0.09597 3.89407636897904 1.7923415785967 5.2084909805484 0.154865882752945 0.857637326323583 0.0959600000000001
0.09598 3.88324423981692 1.98607747961306 5.47137246189014 0.171959749127884 0.891613165139046 0.09597
0.09599 3.99430899213453 2.11819404309426 5.75431716427871 0.168893043505131 0.934549472402718 0.0959800000000001
0.096 4.10490973862097 2.12609023379391 5.69012531437489 0.179732419939991 0.9307159403784 0.0959900000000001
0.09601 3.79375385877521 2.39231883471653 5.84986119158434 0.175682878425302 0.927137017935317 0.0960000000000002
0.09602 3.67469394726562 2.67699682789155 5.76566841697315 0.177293623441449 0.932092203237097 0.0960100000000001
0.09603 3.80606842715011 2.46728400263609 5.79178975621487 0.176833564621097 0.933489718776542 0.0960200000000002
0.09604 3.83534966319785 2.19439286277914 5.88518056710307 0.16700260286322 0.941205152608891 0.0960300000000001
0.09605 3.89313356475483 2.13079343101383 5.67835999525192 0.169256407855626 0.912473324927497 0.0960400000000001
0.09606 3.88922088343171 2.04377755330719 5.73447585332423 0.165424078418561 0.925080742484784 0.0960500000000002
0.09607 3.75863977573009 2.19025585632743 5.34317755457354 0.164007416584458 0.851488942526375 0.0960600000000001
0.09608 3.86597539914042 1.87557385478733 5.12691387878417 0.160767665181587 0.862117265550299 0.0960700000000001
0.09609 4.01808124174672 2.46347110435793 5.37096426588541 0.186520564484212 0.880538059657173 0.0960800000000002
0.0961 4.04919873738883 2.55579643441527 5.46770515851227 0.183172659911078 0.90988536758696 0.0960900000000001
0.09611 4.01529982873999 2.54009709408982 5.44456543501666 0.184231631125238 0.881908609885442 0.0961
0.09612 3.85479014995057 2.2850964590677 5.44944396657501 0.168021138939732 0.902782322935337 0.0961100000000001
0.09613 4.12891916238873 2.25796165085953 5.45710801777321 0.185265110293851 0.906229616434926 0.0961200000000001
0.09614 4.22592660330305 2.21934033869405 5.79263524105567 0.175181945908451 0.966360763479258 0.0961300000000002
0.09615 4.39519001998481 2.26845485925567 5.8905940607344 0.194654207959666 0.97891162607423 0.0961400000000001
0.09616 4.07186389661135 2.45208276546488 5.95523224902419 0.183504708733504 0.97278430669835 0.0961500000000001
0.09617 3.91692110541749 2.4226516171733 5.64399450503099 0.178835051797171 0.912144008220031 0.0961600000000001
0.09618 4.17718028769958 2.47625767711081 5.50936084839294 0.187567692396274 0.933988519584128 0.0961700000000001
0.09619 4.14325015571807 2.34464023702269 5.46147539849606 0.183361394126773 0.882174437969646 0.0961800000000002
0.0962 4.11709420777302 2.42696241832672 5.24898083829075 0.187029383268617 0.894292056166797 0.0961900000000001
0.09621 4.29746078766553 2.17820808566926 5.37475864770471 0.179053404157565 0.884175817555115 0.0962000000000001
0.09622 3.8630415092041 2.01604823199865 5.17017272553955 0.166601236100079 0.864809932618571 0.0962100000000002
0.09623 3.99270168069328 2.11160618362858 5.45256372487915 0.169607948376827 0.889526879372499 0.0962200000000001
0.09624 3.74125581807301 2.24755245008269 5.56941711731499 0.167412428254322 0.902565136904828 0.0962300000000001
0.09625 3.65327045063032 2.67976360528538 5.69673165237622 0.179391586220523 0.935999881632861 0.0962400000000001
0.09626 3.711568014092 2.48817473348381 5.79662543534053 0.175866961064697 0.949888926579647 0.0962500000000001
0.09627 3.7552718508365 2.28354591940546 5.88263163720822 0.173309535787509 0.941292369308638 0.09626
0.09628 3.78024952463482 2.46243777309297 5.89261336000978 0.17961405478712 0.935895736980698 0.0962700000000001
0.09629 3.76964440016313 2.49524285776955 5.83340058797757 0.177393379514231 0.948923240328479 0.0962800000000001
0.0963 3.87039628195853 2.11875367547426 5.66546278610468 0.166092166681645 0.911260521856478 0.0962900000000002
0.09631 3.43303739982824 2.14477848819709 5.51688886346806 0.160108089643377 0.910883928612494 0.0963000000000001
0.09632 3.59240039436303 2.04426643695586 5.73703333221489 0.160731110986464 0.896305239986479 0.09631
0.09633 3.50023091475522 2.21264798392096 5.57669815896584 0.154404173576351 0.882862607363365 0.0963200000000001
0.09634 3.83209121447035 2.15907951827502 5.53627157564413 0.17171088540905 0.896349975843813 0.0963300000000001
0.09635 4.16821605292397 2.47973468756735 5.45038495012952 0.18966105960965 0.923273780077096 0.0963400000000002
0.09636 4.12546444188219 2.41256959950168 5.49728562454669 0.186293718778425 0.890931004777315 0.0963500000000001
0.09637 4.26277720470952 2.41020859146322 5.36410907295035 0.185913314201002 0.889386007459666 0.0963600000000001
0.09638 4.29156710726238 2.25214886150501 5.25771092164658 0.184576910362545 0.881199630550462 0.0963700000000001
0.09639 4.32587939274113 2.49870047092061 5.2923899068373 0.191671601438388 0.895269946748582 0.0963800000000001
0.0964 4.35258778621642 2.24344320173061 5.28830195509186 0.182001772606714 0.925459071751683 0.09639
0.09641 4.30003724112573 2.06990603165551 5.3262867956205 0.184315913037969 0.874499713432916 0.0964000000000001
0.09642 4.23462716136238 2.49303672825416 5.35222614812969 0.195843447218662 0.904667179159774 0.0964100000000001
0.09643 4.62118310494477 2.65279564767302 5.67347170033425 0.204643045867329 0.951895567841783 0.09642
0.09644 4.17105650193137 2.30147251179857 5.71172226377799 0.174610551649823 0.949996980929244 0.0964300000000001
0.09645 4.16626729221467 2.03097144457168 5.76616995187761 0.170450939745754 0.950860483362247 0.0964400000000001
0.09646 3.92139687519553 2.16891667241938 5.58471532899494 0.179209610820599 0.912351012076108 0.0964500000000001
0.09647 3.76035915002046 2.03976968775298 5.60909517600849 0.156084770963799 0.915246367692397 0.0964600000000001
0.09648 3.89013776884997 2.30767504030174 5.60055733177355 0.172273399574732 0.904655398128975 0.0964700000000002
0.09649 3.94319556207639 2.38593853920398 5.53497876900168 0.174238221914464 0.89303328064828 0.0964800000000001
0.0965 3.80322576487233 2.55753614222181 5.47945453179959 0.179315907893341 0.896088211067837 0.0964900000000001
0.09651 3.85200493363118 2.54245601429812 5.56858124781766 0.180758026009134 0.930492493301522 0.0965000000000002
0.09652 4.15037214745443 2.86129309630856 5.39919282784992 0.197211655616445 0.886145421721747 0.0965100000000001
0.09653 3.82027840510229 2.5333637235766 5.44113696355308 0.174241615808188 0.887647676111946 0.0965200000000001
0.09654 3.89326917001939 2.63899988673943 5.39426238936226 0.194385508711739 0.879162215058325 0.0965300000000001
0.09655 3.60294057927203 2.34551780039051 5.42222285231408 0.171094085102945 0.86032182727595 0.0965400000000001
0.09656 3.44378414970824 2.25204150032591 5.57371514744187 0.158518386041888 0.883913608108546 0.09655
0.09657 3.90273073818112 2.52030127063587 5.66103618052219 0.176934831207602 0.906302271395029 0.0965600000000001
0.09658 3.86566667680693 2.38947336130272 5.90205804845718 0.177708234094287 0.960621335226939 0.0965700000000001
0.09659 3.94168558233401 2.20974153123022 5.74168449910518 0.16830371040347 0.934999535171467 0.0965800000000002
0.0966 3.90184795757895 1.97744844082111 5.95284722690888 0.161495845654103 0.952259258281229 0.0965900000000001
0.09661 4.06479780830044 1.88914069445515 5.73338654161959 0.170940509722939 0.949618370082913 0.0966000000000001
0.09662 4.06869842108451 1.77487988980883 5.94715259274206 0.160947413869732 0.955512733079928 0.0966100000000001
0.09663 4.08039663066232 1.74858273256729 5.81089776725249 0.150339378726537 0.953817004561632 0.0966200000000001
0.09664 3.91686694414507 1.90642963381137 5.77560661618007 0.165520610642612 0.927099270617528 0.0966300000000002
0.09665 4.01636986844375 2.16150042585401 5.57138754791448 0.173399582218398 0.930932891209304 0.0966400000000001
0.09666 4.35799802633572 2.73921407181076 5.65372989250144 0.203308233622559 0.96997058251041 0.0966500000000001
0.09667 4.68166949710531 2.7627929287873 5.45034068289963 0.207546537087921 0.908503195661495 0.0966600000000002
0.09668 4.20462487119514 2.4588280115795 5.49530442576223 0.191570540224069 0.903941511873024 0.0966700000000001
0.09669 3.95526065793738 2.35806740369788 5.32973361231807 0.185443711127616 0.857003220384913 0.0966800000000001
0.0967 4.15952666806206 2.21342315211955 5.26019427213548 0.181141665216434 0.882905503776715 0.0966900000000001
0.09671 4.46348430641479 2.07143666241599 5.48792149403801 0.177683414689747 0.916347876276238 0.0967000000000001
0.09672 4.36865035464782 2.16334618847 5.59049954502584 0.179753398238859 0.945205646908495 0.09671
0.09673 3.95635406038557 1.9465412218098 5.60537562907724 0.169067828345559 0.93551298627471 0.0967200000000001
0.09674 4.06445282971691 2.21177806935943 5.60083099938898 0.18166918153876 0.912964430951755 0.0967300000000001
0.09675 4.11828947374525 2.83422326535138 5.57659611969777 0.195045264328599 0.944459408616262 0.0967400000000002
0.09676 4.33340269744261 2.8470406488269 5.6516968555429 0.203762510510396 0.964597243807241 0.0967500000000001
0.09677 4.05743125925901 2.63420628125615 5.60598089982051 0.181561721642392 0.925222340897708 0.0967600000000002
0.09678 3.91139670978937 2.77149538626287 5.64012572144044 0.192310304366188 0.89170398631068 0.0967700000000001
0.09679 3.81825719271918 2.63315712722264 5.42476159944092 0.180197967031455 0.873055681479473 0.0967800000000001
0.0968 4.02433573634953 2.21363555946141 5.45758409132624 0.172465157500691 0.891613134450751 0.0967900000000002
0.09681 4.01079721685057 2.37792886169888 5.60744129723573 0.185052641658566 0.918090301632999 0.0968000000000001
0.09682 3.78594589836538 2.3885487948581 5.63777598885422 0.170454250224243 0.91179551594264 0.0968100000000001
0.09683 3.73741838821834 2.62063523946221 5.57822435706284 0.179218785124949 0.910807676785012 0.0968200000000002
0.09684 3.41609993686812 2.4526712213299 5.67401906165624 0.158285964233282 0.916924882980847 0.0968300000000001
0.09685 3.71755575806774 2.45445916971667 5.73241618304422 0.176199121418699 0.921989206771803 0.0968400000000001
0.09686 3.77899586111304 2.39201210149699 5.65578525788229 0.169100708279957 0.926609407171522 0.0968500000000001
0.09687 3.53082886712456 2.18149945027474 5.66827153822621 0.164876182928839 0.921374593874576 0.0968600000000001
0.09688 3.66023317084224 2.3809920375443 5.50921128340812 0.165736776885416 0.898428768940899 0.0968700000000002
0.09689 4.16381216959924 2.46529810110608 5.49961973275656 0.190865219336716 0.915810109398689 0.0968800000000001
0.0969 4.25332590728939 2.33909992261022 5.62502339478169 0.185606812962846 0.933067597684586 0.0968900000000001
0.09691 3.91009914842949 2.32196129723074 5.71329106084284 0.176179690056501 0.932523729220941 0.0969000000000002
0.09692 4.20037555658716 2.1789752801286 5.56951585586193 0.177644743118917 0.942656559583239 0.0969100000000001
0.09693 4.02132763781804 2.4121893046138 5.54093501393334 0.184478153437431 0.886533515307514 0.0969200000000002
0.09694 4.09432584308468 2.35807295272111 5.47711136365612 0.17557709794218 0.886700840594886 0.0969300000000001
0.09695 4.30659385510582 2.57633320176926 5.42631661903537 0.196566053813241 0.91530848847138 0.0969400000000001
0.09696 4.32740747797343 2.18457953750919 5.42415172263724 0.186461784402682 0.90808151704104 0.0969500000000002
0.09697 4.14719106107566 2.15312363971415 5.61916838017684 0.176657051160138 0.927867140566706 0.0969600000000001
0.09698 4.06732759982658 2.28963159039491 5.29569418078714 0.173081539313278 0.904141208328982 0.0969700000000001
0.09699 4.16413864405062 1.94187256582823 5.49195914703967 0.174327530780228 0.905381495120867 0.0969800000000001
0.097 4.18847175533518 2.332165573371 5.82015817123387 0.189815888393352 0.935945869525669 0.0969900000000001
0.09701 4.05820546634908 2.25939964962666 5.69344927711548 0.172373469351627 0.938688509383219 0.097
0.09702 3.81180839194181 2.32441858090927 5.8427351251669 0.167623055530464 0.968118960912714 0.0970100000000001
0.09703 4.09476792711474 2.8063014751071 5.83316212469571 0.189434822422573 0.94572271573117 0.0970200000000001
0.09704 4.18474389592689 2.90131010585546 5.54257722321139 0.203386982746419 0.906269804839187 0.0970300000000002
0.09705 4.31955123830027 2.8642634750258 5.4342951360087 0.203804104568269 0.910549146770653 0.0970400000000001
0.09706 3.97089937085073 2.29592606091253 5.68174741369165 0.176930550080289 0.930951072867237 0.0970500000000001
0.09707 3.91303646864066 2.15257322921021 5.47271247606714 0.16701446348236 0.898739108844654 0.0970600000000001
0.09708 4.16945840416151 2.32443691134496 5.42631457958383 0.186747236005356 0.894040991601534 0.0970700000000001
0.09709 4.36861513257718 2.34220222289966 5.51684715536609 0.189912269996037 0.929983596603829 0.0970800000000002
0.0971 3.86642825283789 2.5204794311441 5.66271269292041 0.179886886145426 0.888725516268612 0.0970900000000001
0.09711 4.03843514794433 2.05545071172952 5.5465539441231 0.168054541715081 0.919367618717394 0.0971000000000001
0.09712 4.62407057296518 2.36352991637626 5.66880021095118 0.191907565031367 0.93344098641643 0.0971100000000002
0.09713 4.53578946271208 2.17818334177688 5.72376727283791 0.18816909735115 0.992708986428069 0.0971200000000001
0.09714 4.67582132268318 1.93062557688734 5.66072611685418 0.18765345275917 0.93264500643182 0.09713
0.09715 4.50770034987891 1.79558500677453 5.72284859541181 0.174111046212777 0.963951270856959 0.0971400000000001
0.09716 4.29527785383757 1.81422286428768 5.77096570478993 0.173165426558592 0.961582800764617 0.0971500000000001
0.09717 4.30583737595004 2.09160749199209 5.79087960100372 0.177948540094473 0.924482981237262 0.0971600000000002
0.09718 4.26058418610871 2.47589511581325 5.74852673768522 0.187483070878765 0.943492057729375 0.0971700000000001
0.09719 3.8188158688763 2.33260131118063 5.59656723171378 0.170284550206773 0.900928369898986 0.0971800000000001
0.0972 3.99908599774096 2.37389120634883 5.25553552879571 0.175718704243399 0.90435910227519 0.0971900000000002
0.09721 4.34520724805231 2.391067973632 5.32646731682716 0.193755546330401 0.884392694193258 0.0972000000000001
0.09722 4.56143405352416 2.60304845474825 5.16985850683269 0.194934712620373 0.890512481927029 0.09721
0.09723 4.28737154794752 2.44631316248376 5.27712410952638 0.188203606290206 0.893862840031253 0.0972200000000001
0.09724 4.31609489868293 2.44076462325884 5.37518199141933 0.185085547217763 0.906479249964912 0.0972300000000001
0.09725 4.21706847450702 2.7866061348123 5.33334073001005 0.197067420215011 0.878422915024536 0.0972400000000002
0.09726 4.21172268252842 2.70426790057733 5.58446020368283 0.192597253743364 0.909435141255423 0.0972500000000001
0.09727 4.14209644544563 2.65278632355734 5.6422498610283 0.189953642354223 0.944861717796726 0.0972600000000001
0.09728 4.02637036648641 2.83116846379795 5.7501917530837 0.197251515244522 0.947314845277447 0.0972700000000001
0.09729 4.2686426873964 2.61136903382726 5.62329807233494 0.19341111311917 0.909037848200963 0.0972800000000001
0.0973 4.2402002031639 2.17076398017376 5.67950522562111 0.182681078282573 0.92653320976634 0.09729
0.09731 3.78316878851229 2.1878681526968 5.4899771690469 0.160176266845721 0.899945759373761 0.0973000000000001
0.09732 4.10880988285571 2.38905561345481 5.53699663095829 0.181533007900632 0.923409740730352 0.0973100000000001
0.09733 4.03118811651418 2.3840604114976 5.5805656864071 0.182020608888827 0.907340123479531 0.0973200000000002
0.09734 4.20495014798435 2.67872411550883 5.37115156693017 0.188826567201922 0.912373254532967 0.0973300000000001
0.09735 4.15233257793288 2.40270537543848 5.48941659655529 0.178812175551695 0.922749890180845 0.0973400000000001
0.09736 4.40324946683676 2.23756031112443 5.6095336910715 0.193216869250452 0.91004115064002 0.0973500000000001
0.09737 4.37096425398785 2.44916360240674 5.56358965794566 0.183189989528869 0.949058101433655 0.0973600000000001
0.09738 4.20341317338429 2.13821735118865 5.76397552822005 0.180381317835241 0.935212491786842 0.0973700000000002
0.09739 4.02151120537076 2.16166634813554 5.77022713249467 0.172622410454314 0.908282336629769 0.0973800000000001
0.0974 4.27767413184316 2.28111531400952 5.56922585467663 0.182905573256767 0.911312256213414 0.0973900000000001
0.09741 4.29928601136928 2.36146374018276 5.68506717042527 0.191426833141151 0.944604928507597 0.0974000000000002
0.09742 4.31907406991384 2.40051004299232 5.46076395793869 0.183639419470568 0.914310107585929 0.0974100000000001
0.09743 4.22454398461797 2.35249108523204 5.72025714773725 0.185941270531481 0.943355384239294 0.09742
0.09744 4.41905445638835 2.48757187867805 5.65221079528067 0.18635204601748 0.957787973372178 0.0974300000000001
0.09745 4.26302367147762 2.1622777093985 5.55643451813376 0.180816348853065 0.895040970421165 0.0974400000000001
0.09746 4.05238394662014 1.89776372091779 5.57566659961954 0.172979350916948 0.930900380380213 0.09745
0.09747 4.04576838301245 2.09179456144975 5.62043314852797 0.174741262571245 0.908372262217804 0.0974600000000001
0.09748 4.22122905888386 2.64777193419432 5.66054298837985 0.190156279674703 0.935090321774615 0.0974700000000001
0.09749 4.54252103874083 2.55082593705944 5.59105081544218 0.196579140780042 0.930524942516065 0.0974800000000002
0.0975 4.51208014378248 2.65527578010591 5.65817682773805 0.199614625882523 0.919449930092154 0.0974900000000001
0.09751 4.73548308024291 2.18943898045493 5.353102262295 0.188035177756613 0.934895666209117 0.0975
0.09752 4.40137219206765 2.29567805147759 5.50176911190988 0.19432879898472 0.921244625780104 0.0975100000000001
0.09753 4.6397785430331 2.44670073715836 5.6905368963569 0.204592715573458 0.957350896874409 0.0975200000000001
0.09754 4.59611475769136 2.33669450091829 5.589388435467 0.194719206201241 0.928480804843558 0.0975300000000002
0.09755 4.59341440499467 2.33944798540812 5.69399039298921 0.197850758417608 0.948260147858279 0.0975400000000001
0.09756 4.46518561373135 2.12831666905584 5.58972957910629 0.181520683683558 0.954575558578002 0.0975500000000001
0.09757 4.14656937762008 2.25521240860973 5.38591451401853 0.175783211673584 0.903735618289471 0.0975600000000002
0.09758 4.21005344904225 2.34370214340159 5.44002877575462 0.185938069540127 0.927382226311934 0.0975700000000001
0.09759 4.45834513702621 2.37004591308604 5.55561938120789 0.192022112182333 0.924522978062432 0.09758
0.0976 4.39678787743011 2.2299152792166 5.54563267762654 0.185708113135878 0.922609243484045 0.0975900000000001
0.09761 4.00328695350209 2.45406339190568 5.65129145523037 0.186007595477045 0.918487838716683 0.0976000000000001
0.09762 3.96634206633819 2.30044824291404 5.72480881096052 0.171607322130956 0.929637526670412 0.0976100000000002
0.09763 3.88921591077717 2.49293913024501 5.81795130520015 0.18296455998923 0.941169156581503 0.0976200000000001
0.09764 3.76654551227154 2.32884477170593 5.80995721068291 0.16731114230329 0.93706349649802 0.0976300000000001
0.09765 3.61946463411018 2.38033551152619 5.61989252365807 0.172227677131671 0.914391351043792 0.0976400000000001
0.09766 3.67640629619773 2.20498450036755 5.85217036184033 0.165055781372991 0.923664128713549 0.0976500000000001
0.09767 3.79631529932779 2.22046930825126 5.82067721456612 0.167181520200154 0.953858764685548 0.0976600000000002
0.09768 3.97152885423628 2.84207358028918 5.90528471085459 0.196022439380222 0.960327844322826 0.0976700000000001
0.09769 4.29902388645237 2.93947879805759 5.71839845934963 0.204954723330845 0.975952556656179 0.0976800000000001
0.0977 4.25277854150436 2.83339862226788 5.48260302851918 0.202042019578648 0.900899339510585 0.0976900000000002
0.09771 4.33360045926485 2.57701666352049 5.59576764092441 0.191477438155206 0.933605399860199 0.0977000000000001
0.09772 4.3141355046015 2.58237505555273 5.56038506751475 0.199920157846926 0.918048049586808 0.0977100000000001
0.09773 4.36692940785603 2.52860268511038 5.5375646991441 0.188083253975167 0.933189334768103 0.0977200000000001
0.09774 4.42584063769337 2.37045496999562 5.46270380690632 0.196101695265732 0.902903634136836 0.0977300000000001
0.09775 4.39258418355481 2.11743654092775 5.42673764129701 0.181450833063124 0.923937083225203 0.09774
0.09776 4.41099052624117 2.52194220577654 5.46540012727675 0.194180027987646 0.923996468919349 0.0977500000000001
0.09777 4.48228887560814 2.57712261267676 5.62892531830928 0.194877215440372 0.955538734261974 0.0977600000000001
0.09778 4.10440609356236 2.40269018948821 5.61424516648724 0.184072090199398 0.919507168910922 0.0977700000000002
0.09779 4.26448155291044 2.29625420693435 5.6416888977781 0.181907640628135 0.925808730673996 0.0977800000000001
0.0978 4.32314442277576 2.16362676866035 5.63087929693978 0.180263084143496 0.917726782241434 0.0977900000000001
0.09781 4.65539120278369 2.48776011670027 5.57861237347782 0.200576038242707 0.949870273774991 0.0978000000000001
0.09782 4.81823207484989 2.76347824914813 5.62148513893556 0.215371008465757 0.972352273744047 0.0978100000000001
0.09783 4.62497104542924 2.39949827555101 5.8449164050897 0.193329231616465 0.975036665820176 0.0978200000000002
0.09784 4.36122437965734 2.13005709290809 5.62294707046985 0.178492750849169 0.944864817896229 0.0978300000000001
0.09785 4.24646945240659 2.14899151252385 5.56519719363766 0.180983452301147 0.8928432351873 0.0978400000000001
0.09786 4.09926377296272 2.50462831145286 5.42017064669922 0.186514094406536 0.906782165929245 0.0978500000000002
0.09787 4.04385853955593 2.55803015561012 5.55293053260573 0.183661562460302 0.932551647677961 0.0978600000000001
0.09788 4.12774145709771 2.58534818462275 5.66868601828513 0.188061364363611 0.930424397761819 0.0978700000000001
0.09789 4.30707179258391 2.65256822318529 5.56652123952832 0.194688270297799 0.926415986516425 0.0978800000000001
0.0979 4.06948768474966 2.55459227392359 5.78677660204912 0.190949288849922 0.935948450235746 0.0978900000000001
0.09791 3.93701878751946 2.19555069181303 5.85444341055392 0.171360710686116 0.949239428292728 0.0979
0.09792 4.1866502238164 2.38930702255208 5.92753678436908 0.189912911523895 0.960946017516303 0.0979100000000001
0.09793 4.06728744327092 2.6651978905273 5.97337678832967 0.188661320562855 0.966450934869928 0.0979200000000001
0.09794 4.4486121024814 2.42515872749168 6.12114634930371 0.196020950723212 0.990799059806696 0.0979300000000002
0.09795 3.95456580641282 2.16619993853595 5.92020504448379 0.172824760707026 0.925191555326217 0.0979400000000001
0.09796 4.10808115140544 2.56609684205377 5.64128146681575 0.175876487100006 0.955769484589662 0.0979500000000002
0.09797 4.14739866629553 2.61073540558881 5.77494566833037 0.187552279069637 0.959481644991095 0.0979600000000001
0.09798 3.95833884013737 2.25098245944371 5.56704112721964 0.17668139037019 0.918492501550458 0.0979700000000001
0.09799 4.35841809255525 2.27294360721756 5.40573480834059 0.182988699842374 0.911445108107054 0.0979800000000002
0.098 4.36554720684816 2.06389265476087 5.61201376387939 0.185368089614816 0.926343492258048 0.0979900000000001
0.09801 4.21526774621601 2.06511939578242 5.56640731849451 0.179225700979944 0.933523075379741 0.0980000000000001
0.09802 4.48180110363 2.14918461204918 5.53238669382341 0.180842502136403 0.950107688367706 0.0980100000000002
0.09803 4.43495454765543 2.49506322118694 5.48862919865076 0.193944193066901 0.944877628705284 0.0980200000000001
0.09804 4.80862825096027 2.51219088280558 5.51457578210512 0.202056245981008 0.954737600513486 0.09803
0.09805 4.6702616889141 2.66258956832251 5.50434505643447 0.211927864932652 0.937904897870821 0.0980400000000001
0.09806 4.34836523733955 2.54335247376016 5.7442205507874 0.200327759539788 0.933227663434507 0.0980500000000001
0.09807 4.38019592990976 2.52734984995178 5.83694847086973 0.195123248516678 0.958500657371215 0.0980600000000002
0.09808 4.45552038093447 2.27251522580256 5.66022080878827 0.183728171891888 0.958823846782919 0.0980700000000001
0.09809 4.25994125663283 2.2881972508259 5.61539501590172 0.189157771270514 0.94219473798782 0.0980800000000001
0.0981 4.55030469905983 2.44789130059988 5.59517992978889 0.202266567882502 0.940006728637149 0.0980900000000001
0.09811 4.64592384542992 2.434539460538 5.6515557257087 0.196755545255399 0.95720749505742 0.0981000000000001
0.09812 4.65579391901254 2.2598456396669 5.63791868736166 0.191961179586161 0.940956228183563 0.0981100000000002
0.09813 4.23635212741703 2.45736364162747 5.61724195410197 0.18606549971858 0.921274314342865 0.0981200000000001
0.09814 4.01670096591938 2.49991763532746 5.42737156307154 0.186637498569761 0.913469274540704 0.0981300000000001
0.09815 4.08163690205515 2.58448975435132 5.6674659231528 0.186443977726837 0.942460139114911 0.0981400000000002
0.09816 4.32267225911616 2.748834779207 5.63879216551532 0.206095456256558 0.942930272779828 0.0981500000000001
0.09817 4.32976391399047 2.75773014248343 5.72502652731224 0.204952043524692 0.954761668340184 0.0981600000000001
0.09818 4.19327638475582 2.75606490167894 5.55477868481808 0.190971628050203 0.922493390087077 0.0981700000000001
0.09819 3.9246776716448 2.9106295577752 5.52140412254527 0.192768893547946 0.933531152684688 0.0981800000000001
0.0982 3.92677915476209 2.89642614240327 5.78224733133008 0.195527307436865 0.957372816263337 0.09819
0.09821 4.21541386949844 3.13917170322581 5.64041387758591 0.210548790753939 0.930341047601289 0.0982000000000001
0.09822 4.08025050940593 2.78902298697755 5.60247932350043 0.192246242330773 0.917708647285633 0.0982100000000001
0.09823 3.79131342924271 2.6242899881 5.7158283292521 0.17953857523514 0.908192419093911 0.0982200000000002
0.09824 3.8408723994105 2.32015631430118 5.59318928970956 0.163126344186146 0.919460637853681 0.0982300000000001
0.09825 3.98238970186105 2.36233167784002 5.33929043044068 0.184031855700423 0.884667306278022 0.0982400000000002
0.09826 4.27648052119362 2.43746841624379 5.51593919053759 0.191942860638718 0.923231221381138 0.0982500000000001
0.09827 4.40048771503839 2.24364623641875 5.61841061771004 0.185741908763056 0.921317120167434 0.0982600000000001
0.09828 4.18375696232762 2.19861399189613 5.72107947762406 0.166410515279316 0.963244118788178 0.0982700000000002
0.09829 4.1883698649247 1.86981347631745 5.86818005432375 0.173697839368475 0.968633469495127 0.0982800000000001
0.0983 4.40640689332467 2.02669299269648 5.8996282963611 0.181678173483924 0.970376994644586 0.0982900000000001
0.09831 4.45566090444757 2.34594410847878 5.85160787904011 0.198002886709464 0.967102510259692 0.0983000000000002
0.09832 4.6244438507002 2.09984288618165 5.71786579992156 0.188836746851986 0.959636583547604 0.0983100000000001
0.09833 4.8055600217601 2.16138991750255 5.79412557972623 0.194725756950861 0.971078755355654 0.09832
0.09834 4.87543587352638 2.1139949215375 5.72216783252327 0.19576387249928 0.999956692285176 0.0983300000000001
0.09835 4.78921722513228 2.18078066585642 5.6061089716636 0.203068210591858 0.967181621975509 0.0983400000000001
0.09836 4.69947901690273 2.44917790405661 5.47005806042094 0.200241345308959 0.934821232662198 0.0983500000000002
0.09837 4.36656076629955 2.28052271873671 5.41685612258889 0.183974835665719 0.914318424520104 0.0983600000000001
0.09838 4.46442364467849 2.66632341087978 5.57788092949182 0.19782834346658 0.94615877511505 0.0983700000000001
0.09839 4.30409249043602 2.86887950133877 5.59547320270284 0.200265239615456 0.924121397972345 0.0983800000000001
0.0984 4.25039049841551 2.95028376976994 5.54386733563894 0.201270337967487 0.937223504237767 0.0983900000000001
0.09841 4.19079147654206 2.70677817663307 5.57899673649022 0.192982152787069 0.897179642055495 0.0984000000000002
0.09842 4.37710775352063 2.56894353466648 5.56765095766099 0.193764418089933 0.917087226808563 0.0984100000000001
0.09843 4.39742788365241 2.66106034419404 5.69235872128761 0.195368450328289 0.955306178580937 0.0984200000000001
0.09844 4.16482116117009 2.54499516335735 5.74470330671496 0.189548378333911 0.960869205429881 0.0984300000000002
0.09845 4.15660239605373 2.32669754431182 5.92208086903327 0.180198645238424 0.949731436611658 0.0984400000000001
0.09846 3.79989771276329 2.17565709346703 5.94014264913493 0.169296780394898 0.949162409998213 0.0984500000000001
0.09847 3.92268817438932 2.20897723701032 6.1125223599948 0.164035644526042 0.994499928416354 0.0984600000000001
0.09848 4.04957214163648 2.60627207997115 5.95901291230828 0.189504305887119 0.950777019803571 0.0984700000000001
0.09849 4.31584671786148 2.75774415626231 5.9067354895197 0.198534857366343 0.986441828173752 0.09848
0.0985 4.07073748336945 2.56354565611059 5.87814869387432 0.186531687280328 0.975188133389125 0.0984900000000001
0.09851 4.03620015306202 2.51421483342464 5.64264764257648 0.180459451435021 0.932846124529801 0.0985000000000001
0.09852 4.15873604333656 2.36929392241335 5.71815470508229 0.177019988259822 0.949878796067087 0.0985100000000002
0.09853 4.20103941515159 2.47092565762618 5.57942197758047 0.190523009950792 0.902133612670885 0.0985200000000001
0.09854 4.42212702540082 2.55852501532002 5.39900002603167 0.188942861574275 0.932996735665951 0.0985300000000001
0.09855 4.54810387060264 2.49810791423801 5.36457451063365 0.198466475044824 0.902688388826138 0.0985400000000001
0.09856 4.24884501872825 2.39078283544868 5.45230477872543 0.18953337024902 0.897918964007727 0.0985500000000001
0.09857 4.37932992797957 2.68806794719824 5.50159964164809 0.197586079802263 0.931548225617995 0.0985600000000002
0.09858 4.61859355334891 2.80157717555074 5.58253193584118 0.213194539000021 0.942554957173016 0.0985700000000001
0.09859 4.46303918402981 2.44398091734257 5.64917637008638 0.196688114566582 0.941660089803315 0.0985800000000001
0.0986 4.15165269390518 2.35774769931093 5.79849667749527 0.185104888722158 0.940228876238346 0.0985900000000002
0.09861 4.5376396076693 2.3710866018481 5.77147405319422 0.190450906893779 0.968893679546849 0.0986000000000001
0.09862 4.33993128126486 2.31180997393559 5.79806571016741 0.188086451095484 0.948774461771613 0.0986100000000001
0.09863 4.38573782925693 2.37598361402264 5.88312277459325 0.192855557173734 0.970325230842824 0.0986200000000001
0.09864 4.59431437633009 2.70897306457909 5.73852544817118 0.203238033726311 0.954402643107695 0.0986300000000001
0.09865 4.42223030823072 2.64435833827165 5.75043366430317 0.197861740054005 0.960041038865245 0.0986400000000002
0.09866 4.56392838438297 2.73300715011252 5.69296034799231 0.209744610304628 0.964414078959192 0.0986500000000001
0.09867 4.2907378363761 2.41165930511652 5.60437388049423 0.186611906759505 0.932228964991843 0.0986600000000001
0.09868 4.26704067568489 2.3102508601585 5.55812744637994 0.184207145762539 0.913855161468218 0.0986700000000002
0.09869 4.44458056996942 2.32728639955956 5.63747921333342 0.190691341201567 0.941094142684201 0.0986800000000001
0.0987 4.16010864351387 2.45356348972546 5.67462698040215 0.186040133651833 0.918270531428983 0.0986900000000002
0.09871 4.41460337735357 2.54766805849746 5.63368179970678 0.190309269131457 0.949179709436051 0.0987000000000001
0.09872 4.46513796955551 2.63360339888619 5.71611508770735 0.196330021629056 0.974955087410082 0.0987100000000001
0.09873 4.29101020844683 2.20727193371194 5.93262507424216 0.179684098872955 0.972155734105989 0.0987200000000002
0.09874 4.53985861287015 2.42867229591318 5.81704143862197 0.194259863331665 0.942171509066951 0.0987300000000001
0.09875 4.01634708941441 2.24511312029037 5.68568122717309 0.17110920148652 0.948334713407782 0.0987400000000001
0.09876 3.94292064392459 2.31953886320791 5.84645218207194 0.179407311531581 0.948454166842072 0.0987500000000002
0.09877 3.99577038903649 2.49089318838765 5.79359829026934 0.180377097136889 0.946004221713184 0.0987600000000001
0.09878 4.38207706622204 2.63357588962034 5.68132389922712 0.197696734384786 0.934898866173894 0.0987700000000001
0.09879 4.10189200533455 2.52848518299761 5.5884134726963 0.184159808148501 0.936247365541905 0.0987800000000001
0.0988 4.58284686395664 2.42143508551876 5.82321799825958 0.19854996733737 0.94907466325224 0.0987900000000001
0.09881 4.4985464859947 2.58288621552094 5.76071479273179 0.200754425002609 0.96817951138932 0.0988000000000002
0.09882 4.75823670844834 2.7599236717466 5.72609001903105 0.207304912940165 0.974287573516129 0.0988100000000001
0.09883 4.42620166415919 2.64432629709261 5.76686055686076 0.202819819512492 0.944049845939101 0.0988200000000001
0.09884 4.42488315156337 2.70077293279703 5.63329775204053 0.19839716960068 0.94763913291201 0.0988300000000002
0.09885 4.12005369274449 2.37293096355724 5.67211637265139 0.184670816976919 0.944459050151347 0.0988400000000001
0.09886 4.6023378843358 2.29061235224561 5.78550981765237 0.197152904582036 0.958354130906543 0.0988500000000002
0.09887 4.55056583479879 2.2017163610153 5.81545362658247 0.183653147958696 0.969764048627774 0.0988600000000001
0.09888 4.87868422626823 2.67334004453631 5.66478638803288 0.222187227492701 0.961709492718022 0.0988700000000001
0.09889 4.73041110833739 2.49790730639407 5.63949727285758 0.206283761832326 0.926151165735044 0.0988800000000002
0.0989 4.27795551427554 2.41914510281071 5.49195114551242 0.185531422945252 0.931354248814092 0.0988900000000001
0.09891 4.6299325041462 2.24581823887504 5.61280227847255 0.195725963563656 0.958726550329277 0.0989000000000001
0.09892 4.66238925595836 2.06605085519913 5.76355574431319 0.185144826638142 0.957780424654493 0.0989100000000002
0.09893 4.63860726861598 2.21026552018872 5.61470457274377 0.194394650366124 0.941277510267002 0.0989200000000001
0.09894 4.67979832434674 2.16049230473146 5.61413545226328 0.195003160402022 0.939577803728817 0.09893
0.09895 4.58138911659579 2.1967981752853 5.59639180660775 0.189683781564688 0.948759001281939 0.0989400000000001
0.09896 4.45289112524455 2.40748986399457 5.76849993953167 0.191346376464554 0.976438740079029 0.0989500000000001
0.09897 4.46363623798003 2.26105758748012 5.87805781000027 0.19773858149383 0.946697675918361 0.0989600000000002
0.09898 4.24381419764099 2.51287322620336 5.76426340900609 0.184800989942372 0.931096197136333 0.0989700000000001
0.09899 4.25427572808043 2.53222648887631 5.59524676875682 0.185075999459863 0.954177591458818 0.0989800000000001
0.099 4.04279876721236 2.53486256930977 5.57479100224299 0.187935378844891 0.8926870490186 0.0989900000000001
0.09901 4.03369341000359 2.56261567210862 5.67150623713487 0.183023354346335 0.926156516044148 0.0990000000000001
0.09902 4.12616235098851 2.39871555639199 5.79664104714412 0.185524409649526 0.955081275379116 0.0990100000000002
0.09903 4.25075880429033 2.67189882783498 5.86937850948268 0.194173128357131 0.984957069141427 0.0990200000000001
0.09904 4.18543204888292 2.57925527597982 5.89090791964359 0.182155638448956 0.963758384363394 0.0990300000000001
0.09905 4.06855704018853 2.64020946387608 5.60883298169799 0.190925373579281 0.920215052459262 0.0990400000000002
0.09906 3.99288925889879 2.90876946625185 5.46517730156903 0.199919025354117 0.89202997943774 0.0990500000000001
0.09907 4.18043692765491 2.90549762774335 5.45298976053614 0.200288916386045 0.927600547516992 0.0990600000000001
0.09908 4.24527998624811 2.80023551558935 5.62771191321066 0.196301116842266 0.937882367619024 0.0990700000000001
0.09909 4.3691028860584 2.71773462164207 5.73937705734261 0.199371386134784 0.938137876565382 0.0990800000000001
0.0991 4.48028780576988 2.49763027770769 5.65189292364028 0.199394077307855 0.944347556514522 0.0990900000000002
0.09911 4.52727913797359 2.42228769170661 5.75955014129384 0.193405516328373 0.967593077299626 0.0991000000000001
0.09912 4.59988506903281 2.42328942841847 5.64154870837894 0.207467775463795 0.915988135855075 0.0991100000000001
0.09913 4.79816958924725 2.48650656338922 5.58302710789324 0.197434274889819 0.973483994937215 0.0991200000000002
0.09914 4.88387261849999 2.89719652158548 5.61165907194009 0.222757482838951 0.965032165042658 0.0991300000000001
0.09915 4.71480362525634 2.5350502664767 5.7616642109348 0.205594966922791 0.964721501136082 0.09914
0.09916 4.39134923222618 2.43728512428633 5.74775481661957 0.193917842636711 0.96193540786532 0.0991500000000001
0.09917 4.57134915069944 2.24228872967164 5.71318332943446 0.191387120991472 0.939961523090297 0.0991600000000001
0.09918 4.70540156571945 2.17321548331841 5.70418688880289 0.200827976386285 0.932090579583395 0.0991700000000002
0.09919 4.58226138431608 1.96233585856705 5.66839491456455 0.190257435792675 0.966302934722751 0.0991800000000001
0.0992 4.83764168851798 1.94309834112182 5.55773164875928 0.192762998529748 0.949841572243692 0.0991900000000001
0.09921 4.62849513503617 2.37607956203181 5.48714574769828 0.189028618328084 0.950393924331286 0.0992000000000001
0.09922 4.52273346857044 2.59766132354695 5.57320050673094 0.19210589950301 0.95548207121385 0.0992100000000001
0.09923 4.48319390260944 2.41573847844041 5.6143267806942 0.195534686429718 0.934149084809581 0.09922
0.09924 4.2996072282557 2.3145663032661 5.83341017783611 0.181220410184215 0.972015015922022 0.0992300000000001
0.09925 4.11042837508273 2.40437634628346 5.8293043286899 0.182201658169023 0.942600506995718 0.0992400000000001
0.09926 4.37716450629514 2.44281935685693 5.65958692865889 0.193932482660102 0.935316705675359 0.0992500000000002
0.09927 4.43647837045456 2.56900085815054 5.84045686338792 0.194641352484201 0.947558758828739 0.0992600000000001
0.09928 4.30025698529366 2.51343776929471 5.72396296330724 0.195679204741182 0.952499627071924 0.0992700000000001
0.09929 4.28889178766197 2.40401827739286 5.65519407315146 0.185344002643696 0.958716251318215 0.0992800000000001
0.0993 4.18749974543676 2.82273993003542 5.92885745686205 0.199037317077141 0.959042988900222 0.0992900000000001
0.09931 4.06839166346508 2.49401265120078 5.80598463342605 0.190261788584699 0.948947148196818 0.0993000000000002
0.09932 3.85299081266792 2.44994313552996 5.92959407786539 0.17230905546607 0.977800254302245 0.0993100000000001
0.09933 3.65190953501625 2.77455854011219 5.94670827196757 0.18320328284175 0.970188009906477 0.0993200000000001
0.09934 3.97051504738045 2.73711295255389 5.8531037095295 0.190263859677866 0.96092543029475 0.0993300000000002
0.09935 4.15695365743097 3.0163242244061 5.85932739119341 0.197543623906707 0.958082841626015 0.0993400000000001
0.09936 4.14010135833532 2.66640429606749 5.72928592587328 0.188236718389586 0.959391026308658 0.09935
0.09937 4.32980048178298 2.67040006875505 5.60672647201328 0.200454530239393 0.923511957751882 0.0993600000000001
0.09938 4.51122226802693 2.73858404507856 5.65918437404236 0.197333444785865 0.941309028354524 0.0993700000000001
0.09939 4.53574795387676 2.68907559119186 5.70234133377145 0.204848829272909 0.969309607932982 0.09938
0.0994 4.57882706949949 2.44059613524201 5.77000644002836 0.199752451722431 0.951187455204738 0.0993900000000001
0.09941 4.54130010300945 2.57069849752666 5.74975157155393 0.195306601992453 0.970973403000117 0.0994000000000001
0.09942 4.61909751722279 2.44837786509335 5.73919132815072 0.199559597556005 0.945465550463716 0.0994100000000002
0.09943 4.78725799198121 2.58973894046553 5.8473697058642 0.210534883071802 0.962376378066605 0.0994200000000001
0.09944 4.87521713228446 2.67471792651388 5.67043729194455 0.206030855597397 0.966911742460029 0.09943
0.09945 4.57137804919008 2.09602560441491 5.60501318978084 0.192481418793883 0.957016287260406 0.0994400000000001
0.09946 4.60971713150357 2.56703870119899 5.61521295259488 0.202507516021563 0.959831597776457 0.0994500000000001
0.09947 4.93077122534241 2.19798871405598 5.67461114600134 0.198286698087769 0.959533660418848 0.0994600000000002
0.09948 4.87115458116495 2.60984802259186 5.72641437663046 0.212508709749527 0.967987958778958 0.0994700000000001
0.09949 4.85141509445968 2.38424556659846 5.7269345903313 0.201889059736901 0.995231807025144 0.0994800000000001
0.0995 4.48976513150397 2.39724613465327 5.69302031827306 0.192612969807756 0.966702751645317 0.0994900000000001
0.09951 4.612445550705 2.53404834854372 5.7740663563881 0.200380922945121 0.95569433573706 0.0995000000000001
0.09952 4.38245840975683 2.56405322266698 5.66710204797941 0.195220766361121 0.937031000678693 0.09951
0.09953 4.12492244450345 2.61015314378801 5.66322950810111 0.188476950240221 0.925655771460987 0.0995200000000001
0.09954 4.09280288227177 2.74218688508181 5.86576005980204 0.189497314565059 0.937558569281548 0.0995300000000001
0.09955 4.20336877156109 2.85098681821766 5.69057084701701 0.201815072129412 0.914343273643448 0.0995400000000002
0.09956 4.33329014065588 3.05091662562586 5.78159259273018 0.209836067693536 0.96593742890109 0.0995500000000001
0.09957 4.15932612328114 2.70858904905962 5.89872934550813 0.194567757768287 0.955085006642037 0.0995600000000001
0.09958 4.20786923127444 2.46312465488707 5.8346770428556 0.19215498533402 0.962256257781393 0.0995700000000001
0.09959 4.00020616396623 2.52832399785464 5.92182357675671 0.180845998949353 0.95339159141227 0.0995800000000001
0.0996 3.91943977838586 2.17934866639919 6.01797567726552 0.171146144989888 0.945676795666987 0.0995900000000002
0.09961 4.22119771433914 2.59588644844091 5.91251939658319 0.190919190005979 0.970222125106167 0.0996000000000001
0.09962 4.26789599477818 2.89178087220971 5.89814926132553 0.201203379875723 0.963942323668927 0.0996100000000001
0.09963 4.5233444830948 2.62111983336468 5.80810512978167 0.201849432736264 0.972269055345019 0.0996200000000002
0.09964 4.63950268401094 2.5702637518848 5.80870940058812 0.208931773662362 0.968805705020184 0.0996300000000001
0.09965 4.71302884925868 2.37973706695952 5.67345144567976 0.192495063555338 0.964546169435684 0.0996400000000001
0.09966 4.7059373864096 2.22994404520205 5.64718358896327 0.203079390252962 0.940997233681649 0.0996500000000001
0.09967 4.66818072949679 2.48086895006565 5.97803556835164 0.200919807730963 0.968033579960793 0.0996600000000001
0.09968 4.54906432802999 2.4427814789415 5.86459370358259 0.190609574428504 0.982207099322461 0.09967
0.09969 4.57392046075 2.45270010360871 5.73764112323343 0.196077592109709 0.953960600593167 0.0996800000000001
0.0997 4.46638911725687 2.69527206435997 5.60697337101579 0.202190348188428 0.935147379504059 0.0996900000000001
0.09971 4.74106536356023 2.64455562167436 5.73684451598956 0.199383207800975 0.991162041475083 0.0997000000000002
0.09972 4.66420467521981 2.65752357507931 5.82844133603431 0.19969522588066 0.993156499990227 0.0997100000000001
0.09973 4.47792159685072 2.49537902724035 5.75531267747938 0.192928049514071 0.94368790412197 0.0997200000000001
0.09974 4.50513042974643 2.51344993733832 5.72537882642753 0.201120691684408 0.96866511880109 0.0997300000000001
0.09975 4.73066373543695 2.53557810620708 5.6855519494702 0.202080599426166 0.970444639436259 0.0997400000000001
0.09976 4.90815821966112 2.82307105234116 5.71704177269898 0.215337061575233 0.984902656155297 0.0997500000000002
0.09977 4.61846409157912 2.51000414755989 5.95197215861886 0.205432046719706 0.973215087654503 0.0997600000000001
0.09978 4.36591868821833 2.20088227068648 5.78504548866488 0.187807007225632 0.943407452825875 0.0997700000000001
0.09979 4.5563075033571 2.3331875147501 5.76223352866908 0.186892019459487 0.978070595338379 0.0997800000000002
0.0998 4.2747769163976 2.51782424764998 5.95562580404427 0.192420371123949 0.955149378670204 0.0997900000000001
0.09981 4.31371511634312 2.69627711347935 5.90436591047013 0.197740754219062 0.967537780209074 0.0998000000000001
0.09982 4.55247098955509 2.45921990736952 5.83331712986926 0.196164016067221 0.976521416488183 0.0998100000000001
0.09983 4.35937292394899 2.39522565200755 5.76282556979264 0.192401041680978 0.953126023060317 0.0998200000000001
0.09984 4.26181635303041 2.24944755974002 5.81850653082474 0.180509272924062 0.952656600427268 0.09983
0.09985 4.37181765531813 2.32738914959878 5.71862853070873 0.189754832976058 0.931646422414495 0.0998400000000001
0.09986 4.13241375160431 2.55279311383113 5.85358019527262 0.187492667549096 0.954982287025067 0.0998500000000001
0.09987 4.58553350873115 2.60669024767081 5.7772116309613 0.201605182243276 0.96337174689528 0.0998600000000002
0.09988 4.20151228026698 2.60362149874894 5.67006242643328 0.189766384141335 0.974218928327793 0.0998700000000001
0.09989 4.37288111942515 2.84476322254607 5.87359272265089 0.205875749723138 0.945939123087645 0.0998800000000002
0.0999 4.17054363241916 2.92525430625593 5.76185754747302 0.199662722454772 0.938627867399401 0.0998900000000001
0.09991 4.26738046387538 2.69443946838626 5.87148788311954 0.196821644864651 0.956800793826408 0.0999000000000001
0.09992 4.395800478651 2.58394869173476 5.91000213889635 0.19585114600179 0.970840837784497 0.0999100000000002
0.09993 4.55744642804139 2.53011730379973 5.77504582553008 0.210206451650554 0.966755816233857 0.0999200000000001
0.09994 4.53343643864452 2.34211159770728 5.92183293167142 0.199428696028541 0.998192415860169 0.0999300000000001
0.09995 4.84441577462037 2.61633228346362 5.95597509870292 0.212113912063478 0.971086262520685 0.0999400000000002
0.09996 4.58264781349623 2.62001097625015 5.8603957581897 0.197733219583873 0.976328957345435 0.0999500000000001
0.09997 4.76708674120414 2.79578409882581 5.77884416237547 0.209284642760748 0.970948558887194 0.09996
0.09998 4.46403466319591 2.56648156102327 5.75367313721679 0.197160086913681 0.963697082463021 0.0999700000000001
0.09999 4.72120792692098 2.63737581309848 5.85033365071282 0.201793569123143 0.987405788561391 0.0999800000000001
0.1 4.56181294198632 2.31277839963781 5.86088197084254 0.192036085692563 0.965066532111061 0.0999900000000002
0.10001 4.63446825655698 2.67423420599285 5.85166652901403 0.202438931089525 0.973161627178818 0.1
0.10002 4.63400264550344 2.30462230311428 5.76613405669097 0.191510184550725 0.969395801742868 0.10001
0.10003 4.9980861377258 2.57940445583863 5.75561453199539 0.216294727485812 0.977519565848264 0.10002
0.10004 4.69324211202036 2.78081518087356 5.75025855304933 0.202081242704473 0.968539087761704 0.10003
0.10005 4.64622584571795 2.90308718159145 5.74911671934747 0.207578691457272 0.980560295547966 0.10004
0.10006 4.29986287050874 2.88662090888479 5.74674901155567 0.203572246786735 0.953533529302446 0.10005
0.10007 4.27952790450237 2.86134572935178 5.72986320622234 0.20336948456836 0.966774409958178 0.10006
0.10008 4.02746296473047 2.15933894991273 5.94193456418779 0.171206309167092 0.951120317619042 0.10007
0.10009 4.10235615001139 1.99839084485388 5.89813665447486 0.171195110890715 0.96120171720527 0.10008
0.1001 4.36930401571287 2.29597114613001 5.87684508616381 0.184354369328065 0.950779164618697 0.10009
0.10011 4.53391108368139 2.5162462042252 5.86569147178588 0.194793005389795 0.961158971909679 0.1001
0.10012 4.47615468424546 2.79069789960446 5.81305169331721 0.208256212780296 0.972718694028541 0.10011
0.10013 4.73056757666436 2.90382304183766 5.83031885326306 0.220630173260346 0.975219293960424 0.10012
0.10014 4.18494128712832 2.66590071306122 5.97399284092252 0.189173995775469 0.968493535012855 0.10013
0.10015 4.22943134015822 2.62144220682478 6.06187849158389 0.193952950235034 0.981894275721383 0.10014
0.10016 4.33503463172064 2.46591465081456 5.97859563635382 0.186482329014921 1.00406038132113 0.10015
0.10017 4.58937151929484 2.78360203572808 5.86330879960659 0.212329940327233 0.956900173716109 0.10016
0.10018 4.73510100178043 2.55688622348988 5.65157876058977 0.202264583267159 0.961447729414865 0.10017
0.10019 4.58492393287324 2.70710950418883 5.76950609615252 0.202078242246584 0.974613422311582 0.10018
0.1002 4.42558691405363 2.63967404431755 5.88754919356419 0.197639219936212 0.973024635927983 0.10019
0.10021 4.44925075566527 2.51293706718382 6.07034719043058 0.197867661934135 0.974051259156078 0.1002
0.10022 4.27467107606071 2.89189879794935 5.874811072822 0.205592411848671 0.960945672753525 0.10021
0.10023 4.15625657305181 2.68935717444956 5.98768376449949 0.190153568385211 0.9950807839019 0.10022
0.10024 4.52504427725825 2.64935236873567 5.69771908099924 0.206423727235488 0.925658904020138 0.10023
0.10025 4.50017566867189 2.74675692693885 5.76864993569464 0.202143390743217 0.968097272536803 0.10024
0.10026 4.72653193242625 2.39692633347974 5.9859444724206 0.207018003039701 0.967992325217433 0.10025
0.10027 4.68586189243087 2.56169194030377 5.92195127613675 0.199781772492121 0.994056958948848 0.10026
0.10028 4.73771310579556 2.58423909760111 5.94607695390611 0.208938991740338 0.977360478294721 0.10027
0.10029 4.4971642541322 2.57646924617836 5.84846347440424 0.198655191532934 0.978959784124269 0.10028
0.1003 4.27089016572373 2.7003624354695 5.90268013520498 0.192474031180292 0.956024875705047 0.10029
0.10031 4.51020464530596 2.77306950438877 5.93515357840298 0.206827807403085 0.972951801856511 0.1003
0.10032 4.28222727321612 2.25156770843281 5.75433561808479 0.179007916716299 0.963755637752044 0.10031
0.10033 4.6439648431311 2.41714793198112 5.61304139590521 0.205072559954066 0.942106756570573 0.10032
0.10034 4.72971372359139 2.46767640764316 5.82557978677851 0.199970572411666 0.966092701006093 0.10033
0.10035 4.64119352270904 2.09437521062962 5.75520283904791 0.187118016133874 0.960737728497759 0.10034
0.10036 4.42552118899 2.33496417981807 5.66503083637459 0.194072669948798 0.938636761820351 0.10035
0.10037 4.31142528155947 2.17375447073334 5.77195910099399 0.17542745785048 0.962035757484744 0.10036
0.10038 4.48969672004375 2.71250161470755 5.88593484449455 0.211721099953431 0.97149679929667 0.10037
0.10039 4.50987277410467 3.00517440730162 5.90671709819171 0.209150860254096 0.989360975144593 0.10038
0.1004 4.2216048224749 2.79175024549203 5.95201072254147 0.197014956210115 0.972708647152153 0.10039
0.10041 4.29944939148088 2.41509315634524 6.09441019372815 0.185879966791764 0.993117794226489 0.1004
0.10042 4.4684034880018 2.66056511650368 6.11927945199864 0.198417034591222 1.01415363406994 0.10041
0.10043 4.49819054498201 2.65255640970711 5.99451941362129 0.198791747363796 0.987282215667578 0.10042
0.10044 4.62564874189757 2.87219855416673 6.08825262428201 0.211714387223212 1.01314280823112 0.10043
0.10045 4.67283805917302 2.86577639077329 5.9203112782257 0.218918652998766 0.970784508450672 0.10044
0.10046 4.73016112864116 2.52276494412896 5.69608506109945 0.209768132836407 0.983472171800226 0.10045
0.10047 4.81140020823552 2.92816908051482 5.88234367224263 0.21579465484444 0.983474456642515 0.10046
0.10048 4.73018841023914 2.69124336421712 5.67864854177578 0.199094423317497 0.969633316282428 0.10047
0.10049 4.39186466355064 2.30447716624488 5.72440094800138 0.189136945923803 0.91593731869213 0.10048
0.1005 4.71756711219 2.95715148311433 5.67989807234442 0.219301471847461 0.965968369119947 0.10049
0.10051 4.45995165003036 2.62957168953201 5.70259095212205 0.202088536586544 0.96434439389521 0.1005
0.10052 4.76712320225892 2.53175464474192 5.65237294758015 0.200730837985354 0.990724197848786 0.10051
0.10053 4.81717998735507 2.38076026472129 5.63936948979279 0.210801357925355 0.942213882426447 0.10052
0.10054 5.01002087922738 2.49575064687337 5.69918089923518 0.211594901593239 0.96730077054183 0.10053
0.10055 4.83663535789116 2.53850908715507 5.82512604119558 0.204937142643908 0.969936890902675 0.10054
0.10056 4.50555271597604 2.55064043976292 5.81646296172571 0.197576302906407 0.982710623790059 0.10055
0.10057 4.50626412451074 2.53872957504827 5.90024594750747 0.197337437455729 0.992734385462342 0.10056
0.10058 4.28156840362481 2.59456587489628 6.00333710171638 0.195968574135953 0.974020434540892 0.10057
0.10059 4.54652435128754 2.71619536324984 5.80243159087883 0.202034194682973 0.964096691550374 0.10058
0.1006 4.30663577431607 2.27936421335731 5.87543255608312 0.185495842369301 0.98229744983124 0.10059
0.10061 4.45432039071584 2.22828788939289 5.87205933995567 0.182728363423139 0.981537184850469 0.1006
0.10062 4.24025720096011 2.02389282256373 5.87575000988041 0.166564351069699 0.959858904913214 0.10061
0.10063 4.56964857912635 2.39669956760476 5.82332672417516 0.196983193967088 0.995291094620254 0.10062
0.10064 4.26866049466375 2.75866759824269 5.77476818393031 0.200766568447732 0.950847702957558 0.10063
0.10065 4.38197627228243 2.64511787365891 5.75131049304191 0.19661708183093 0.971121181689772 0.10064
0.10066 4.01333213811431 2.52940061320229 5.69772776586467 0.187860791298343 0.920054521057847 0.10065
0.10067 4.486889967319 2.39508534024952 5.79348877940278 0.186762977073068 0.980122557995007 0.10066
0.10068 4.66000903795872 2.67141498663087 5.87367139374651 0.206057167041791 0.987297771188864 0.10067
0.10069 4.65305949895302 2.82550078383794 5.97264004667022 0.210291992829415 0.97987536448044 0.10068
0.1007 4.67296339675995 2.81867496472399 5.83088009459444 0.208113758098397 0.97142718782506 0.10069
0.10071 4.75695884858874 2.71201137956554 5.73555107920617 0.215660606843355 0.967747314209554 0.1007
0.10072 4.58285262812971 2.58708639627114 5.74583644399799 0.201776852821145 0.977124728162377 0.10071
0.10073 4.93465797826169 2.49227430017002 5.94967879422143 0.206955706292632 0.991972285495917 0.10072
0.10074 4.96352360291668 2.84621982156685 5.9047732763404 0.212668312996573 1.01765100989276 0.10073
0.10075 4.78672963317835 2.73264070314782 6.05572310953132 0.213850060210918 0.972697516901085 0.10074
0.10076 4.49938933114045 2.57649455603058 5.66284954799028 0.203717787141324 0.957703938532041 0.10075
0.10077 4.86513253289064 2.68551233768245 5.85620993089767 0.203785885053072 0.999288294158143 0.10076
0.10078 4.77411538422237 2.59939613155695 5.79011950691779 0.205935735238984 0.984366712927396 0.10077
0.10079 4.73669518266334 2.40462579413817 5.98019944240748 0.200042467478475 0.998857301493532 0.10078
0.1008 4.85460472072795 2.67027637033053 5.88076253824941 0.205616349060999 0.973154597319433 0.10079
0.10081 4.74867017807162 2.58366794825593 5.62688070595974 0.207552035276212 0.94812161870883 0.1008
0.10082 4.79022517499003 2.85364589143028 5.67930786327983 0.223273463464127 0.97922514712577 0.10081
0.10083 4.53703990493705 2.65780372460053 5.81930541116283 0.198463365163516 0.961966473309891 0.10082
0.10084 4.36109734607145 2.39809664893455 5.83771473923063 0.191297024881898 0.960885635061839 0.10083
0.10085 4.45583302766461 2.42850376299743 6.03525962048927 0.199281797988751 0.960407970905808 0.10084
0.10086 4.28984827052806 2.72090014189135 5.94691068608564 0.191765969719026 0.968396828973114 0.10085
0.10087 4.39081652220611 2.52982265765604 5.96457998137091 0.191720363693186 0.987480696811997 0.10086
0.10088 4.71626045042808 2.61280886132487 5.86555217291237 0.199487990278808 0.976183784731596 0.10087
0.10089 4.24732428813681 2.52332505901609 5.9971425800798 0.193642232140125 0.985564483530588 0.10088
0.1009 4.14670772340896 2.37070451913158 5.97787781979668 0.183739012110613 0.972660821956205 0.10089
0.10091 4.31275646801496 2.39627369259666 5.93349480919012 0.188694955541363 0.95820836406687 0.1009
0.10092 4.23142824253475 2.44350971197802 5.64031630140442 0.184741908857671 0.936599710313413 0.10091
0.10093 4.82452413455341 2.68625116826027 5.7781673707943 0.212771370480469 0.982624979653377 0.10092
0.10094 4.6777863622452 2.90427623419948 5.67669186673013 0.207360283691824 0.963988083100202 0.10093
0.10095 4.74038788215028 2.83477808406972 5.58271713867839 0.216214027092521 0.928487062616983 0.10094
0.10096 4.6867036497556 2.55325314962218 5.78588565739244 0.197964994625392 0.97239850879078 0.10095
0.10097 4.50709077663824 2.31881446245067 5.92476775511872 0.192056603743258 0.964547895462686 0.10096
0.10098 4.67493098013034 2.36060786044408 6.05800480750843 0.185919261900699 1.02357415909898 0.10097
0.10099 4.42717861211388 2.48025430829194 6.00487929367279 0.197608333896587 0.981243821075925 0.10098
0.101 4.55437657836732 2.83429668228132 5.8148048766372 0.210584271456881 0.970629393255473 0.10099
0.10101 4.43807024877922 2.38505252030263 5.80823722010688 0.188496011729625 0.955865571632735 0.101
0.10102 4.53931659543283 2.65946652950641 5.77253085473358 0.204559477781864 0.971710218374559 0.10101
0.10103 4.82177359505738 2.72521553099668 5.98298041784709 0.219598334984588 0.996168166143007 0.10102
0.10104 4.46484246402367 2.56152697568582 5.94986684031587 0.207412967075979 0.988853912173382 0.10103
0.10105 4.99948723149208 2.51448484020233 5.885160943815 0.201835948367806 0.990229340822811 0.10104
0.10106 4.61059626143021 2.70890902379968 5.79005156366074 0.205743746413516 0.978355404231806 0.10105
0.10107 4.46673254047706 2.73320646525684 5.72462500068979 0.199581469380385 0.950578747607704 0.10106
0.10108 4.47946436840176 2.83164476512264 5.73638796455126 0.205870932265165 0.948908763498787 0.10107
0.10109 4.52817713082779 2.40428223189637 5.89498078730995 0.192984100119591 0.981199337706149 0.10108
0.1011 4.72052904551722 2.56629923040603 6.07235200392765 0.204896779986074 0.974422882924677 0.10109
0.10111 4.92152881947288 2.55510229739466 6.09500838205029 0.208747473508308 1.01121623560994 0.1011
0.10112 4.6404484496733 2.44330011537534 5.85794131392173 0.196434504692321 0.955345653079321 0.10111
0.10113 4.39948617848728 2.39574010101391 5.94132201940493 0.190192851060329 0.970331873759383 0.10112
0.10114 4.32838786492585 2.40235695885765 5.73062128413981 0.196702684943972 0.933778945051638 0.10113
0.10115 4.40153235059523 2.65013833089882 6.01192604742739 0.197565817338551 0.99388115497812 0.10114
0.10116 4.56249419513743 2.39857124305799 6.11892333044475 0.196593713359678 1.00306589668832 0.10115
0.10117 4.51211693378514 2.15464522071917 5.9872082064975 0.184579415679733 1.01717367070308 0.10116
0.10118 4.6739038318992 2.535777023542 5.86728506604899 0.208446381917653 0.967036688818346 0.10117
0.10119 4.56675337649616 2.39361471094311 5.79169107674801 0.195725934351361 0.969163376433969 0.10118
0.1012 4.6194424769735 2.28713109535168 5.93413475460762 0.196442335469506 0.954890781664131 0.10119
0.10121 4.48141452028047 2.3961878840196 6.06077671618976 0.186543806089524 1.01731825770402 0.1012
0.10122 4.40545306907171 2.4082855470252 6.25273542280316 0.192071652252201 1.00069446621725 0.10121
0.10123 4.53199746438102 2.71557825484179 5.98355978167973 0.202823063348216 0.979628603570581 0.10122
0.10124 4.83652730749717 2.94770590172486 5.63154601255541 0.220646790239857 0.954357197599906 0.10123
0.10125 4.93231030173927 2.62539100010469 5.63023944364784 0.206545143704926 0.988838551945181 0.10124
0.10126 4.7669340454793 2.47212406936726 5.68601957809776 0.207193961655093 0.955112296802137 0.10125
0.10127 4.92628507609025 2.44595896649021 5.73407768327959 0.211627397999971 0.981860467316304 0.10126
0.10128 4.95100702215648 2.14357149017155 5.65985440319107 0.196075932102774 0.95916267929516 0.10127
0.10129 4.74164471841901 2.64378323085878 5.73893240831426 0.205053088824202 0.977191809699714 0.10128
0.1013 4.41511228084821 2.32552150492601 5.90804072015459 0.190855484728649 0.956952654537485 0.10129
0.10131 4.49405151020766 2.75274352086902 5.95815878442704 0.208215772761008 1.00066165658379 0.1013
0.10132 4.62654939037237 2.81195640333087 6.20957687282018 0.214284776532743 1.01312210579935 0.10131
0.10133 4.45103153929829 2.76645009357203 6.14912164128787 0.200124294707354 1.02683378105582 0.10132
0.10134 4.74258714006153 2.71250483747912 6.2050169102484 0.206933196717164 1.03009052980879 0.10133
0.10135 4.81489215417685 2.54316121708627 6.08834954482041 0.205472954111206 0.985962011473934 0.10134
0.10136 4.53998505348963 2.57943151684261 5.8788752222044 0.197799490233511 0.971109499674853 0.10135
0.10137 4.47801428599856 2.82445653803785 5.67204931229524 0.207333261533027 0.948229097299114 0.10136
0.10138 4.31471340418976 2.68453415895205 5.59984561246184 0.188553925305998 0.943899105328069 0.10137
0.10139 4.52422949604478 2.86335345150509 5.71259908325004 0.212204186909638 0.965953379882929 0.10138
0.1014 4.50703917783238 2.89429062294864 5.58767918341868 0.215049647001887 0.949744997577978 0.10139
0.10141 4.54760843456795 2.86619304085566 5.64763764656955 0.209051752156124 0.964660872255444 0.1014
0.10142 4.88827617088093 2.87961774894906 5.54853418903839 0.222454566883161 0.954413026868542 0.10141
0.10143 4.86357555930222 2.59837941319477 5.4998269507281 0.20473535694632 0.958976558389404 0.10142
0.10144 4.99476501201896 2.78485321199062 5.83103699478141 0.214367832150698 1.00670819583751 0.10143
0.10145 4.84799637475543 2.56064220979571 6.02530935934098 0.203198876960423 1.00746557741622 0.10144
0.10146 4.53312541279165 2.41291629666815 6.17841039269297 0.193336956660718 1.00712681798974 0.10145
0.10147 4.46630478590434 2.34529121615646 6.21000874453777 0.186577435707076 1.00630400403039 0.10146
0.10148 4.52676923828613 2.14496673429536 6.17039587889646 0.182818780099181 1.02631793495847 0.10147
0.10149 4.52785484451146 2.37309975702066 6.05004241736032 0.192491847276475 0.997470831711398 0.10148
0.1015 4.71621046146117 2.35161040856273 5.81668907521925 0.201849470876768 0.999453085580077 0.10149
0.10151 4.54934327748947 2.28472920045525 5.8725995821913 0.182821529953813 0.984716580052336 0.1015
0.10152 4.7071684046676 2.88869530998555 5.8976675604574 0.215157150951339 0.979670564363184 0.10151
0.10153 4.84136560435658 2.47468051797271 5.85654139856119 0.198337879480767 1.00058499906938 0.10152
0.10154 4.89665548749419 2.80931279509864 5.80140341482495 0.217477792187946 0.980757302948676 0.10153
0.10155 4.72699120933375 2.48181868154212 5.85090627240739 0.202067413257433 0.979862492504017 0.10154
0.10156 4.64237661991235 2.31368314434479 5.80240296752459 0.196836801127901 0.979355453598639 0.10155
0.10157 4.74921946299235 2.57027325893515 5.75792201822579 0.199751818461273 0.984005444546876 0.10156
0.10158 4.80032551027835 2.73381151641739 5.87111505396313 0.213557081373878 0.987695837067612 0.10157
0.10159 4.72710697073668 2.82133241459168 5.79833172903578 0.203080923543538 0.994611978107599 0.10158
0.1016 4.63316743059362 2.69088528885658 6.0739376666152 0.198575773763945 1.00841972121527 0.10159
0.10161 4.85526289904496 2.91881556808319 5.95861460106855 0.215691225673242 0.973026924756746 0.1016
0.10162 4.67188279023412 3.07927563215368 5.9479109908989 0.218304241861453 0.975838049833606 0.10161
0.10163 4.48156783112263 2.77459782947586 5.85580056499622 0.206854024948501 0.99305475793439 0.10162
0.10164 4.36748901340151 2.58255939353351 6.05086790202904 0.186223430714668 1.02494552335822 0.10163
0.10165 4.53508425431958 2.31420899866596 6.1322627758697 0.196835828606 1.00143835251905 0.10164
0.10166 4.20357335085821 2.34959571479781 6.07063181892346 0.18777152271753 0.97737953926219 0.10165
0.10167 4.61111278300462 2.72811177225524 6.07733909572343 0.197733845161471 1.0214717461931 0.10166
0.10168 4.54930411057648 2.6624529876952 6.18842956974204 0.201237164596846 1.01183111240303 0.10167
0.10169 4.6294628796333 2.75430935387091 5.92494086899917 0.207880680706892 0.986115308048094 0.10168
0.1017 4.93574949787882 2.67572868257887 5.81187487003482 0.215386946478676 0.963765390500448 0.10169
0.10171 4.48643564384468 2.56939863276744 5.70929054002271 0.198671418290389 0.964242153018169 0.1017
0.10172 4.71827931049384 2.3797662089953 6.02329104237231 0.197196042719288 1.00169922728534 0.10171
0.10173 4.7482112697558 2.66735916308721 5.85316491621003 0.209492867331446 0.971697296931429 0.10172
0.10174 5.04032580158756 2.61188270306552 5.77400073543952 0.206908459333113 0.986528413955661 0.10173
0.10175 4.68055223084394 2.51795536418804 5.84844082224549 0.201957785653917 0.979127847509568 0.10174
0.10176 4.5998288483689 2.13496187901591 5.94188891168408 0.178550584150203 0.980347853065093 0.10175
0.10177 4.79237842304413 2.4435980605111 5.94734394162851 0.199317598268534 1.01473789380004 0.10176
0.10178 5.0714750907322 2.43578604991556 6.12847072037774 0.204411465813593 1.02342959551025 0.10177
0.10179 4.95628208412713 2.51235126882522 5.87039468212511 0.210253274093625 0.986610275458016 0.10178
0.1018 4.74068266039237 2.95271115052188 5.81215208892839 0.208776361690287 0.995406193709999 0.10179
0.10181 4.75839273326991 2.98809433074401 5.71595641983338 0.211597303837388 0.961119029210632 0.1018
0.10182 4.92867859057154 2.99302989466707 5.88737478493037 0.215010631105392 0.981607649565709 0.10181
0.10183 4.62853756752613 2.89462976188495 5.76057181482047 0.213235606172723 0.977332050221706 0.10182
0.10184 4.53429517840548 2.75730347768501 6.01640332008241 0.199134598175984 0.980032566259558 0.10183
0.10185 4.66692008426702 2.75017609849106 5.91529358650519 0.214329410904589 0.975398914548787 0.10184
0.10186 4.68180615620174 2.4794225156428 5.94804438202331 0.200231397635992 0.992498102486856 0.10185
0.10187 4.77421578510144 2.58924285663974 6.03327504497395 0.206117724026235 1.00508576697906 0.10186
0.10188 4.94803119347575 2.91598804779814 5.83680308843012 0.213455775355138 0.990420765915056 0.10187
0.10189 4.71258073100215 2.7031764918029 5.87328481211392 0.209597465421598 0.984988011980414 0.10188
0.1019 4.21450242654768 2.76393498720122 6.21734691797756 0.192320676337706 1.02464089747673 0.10189
0.10191 4.55188074048209 2.61275452477684 6.13018627704502 0.19915034042 1.01645320659315 0.1019
0.10192 4.34668144248311 2.76411955757623 6.0651534394792 0.20427502605308 0.964229645009819 0.10191
0.10193 4.43294879300192 2.7181781260751 5.8450421921228 0.203081067447217 0.973949980906906 0.10192
0.10194 4.52733280529698 2.37282164798479 5.93640131567782 0.19412010735966 0.983672820481109 0.10193
0.10195 4.71370575000655 2.71040277949561 5.93188285720896 0.212450453599422 0.977149443213574 0.10194
0.10196 4.49713196492297 2.56934912008268 5.9698184141152 0.197543090227592 0.970346061927022 0.10195
0.10197 4.67346986844175 2.6492736137533 6.064226235147 0.206003578033409 1.0054606167919 0.10196
0.10198 4.72907260767759 2.7313807585614 5.94384877630514 0.21027613257968 0.970342991136589 0.10197
0.10199 4.46619557906679 2.57824117901972 5.85961460047446 0.197409133933692 0.986622092846173 0.10198
0.102 4.51564615168019 2.74024090681847 5.86272176641758 0.204676607296848 0.972103084764017 0.10199
0.10201 4.6839287266857 2.37005700759975 5.93221978542677 0.197107247313801 0.977161469647575 0.102
0.10202 4.58785838136992 2.44138221568373 6.09080118070387 0.198526428240156 0.998205687388784 0.10201
0.10203 5.09528170297816 2.44849474107479 6.07062360222468 0.217876824606888 1.02631596926718 0.10202
0.10204 5.17699737569628 2.71233555112429 5.91477279439022 0.216813151576926 1.02554767179368 0.10203
0.10205 4.87993269108032 2.56755754346126 5.92896229983722 0.212335787003356 0.996734909312891 0.10204
0.10206 4.59338593745901 2.21435642662275 5.86849420353363 0.186423010843438 0.984128558844147 0.10205
0.10207 4.70425528503935 2.54314329826854 6.05778716950043 0.207712703772063 1.01451634816375 0.10206
0.10208 4.97188268938076 2.5470082573686 6.184769764787 0.218776031957428 1.00640951741993 0.10207
0.10209 5.08898220044513 2.66481930326811 6.07595205526855 0.213341605498763 1.03247478250909 0.10208
0.1021 4.97854180414753 2.86192735294908 5.8513612417579 0.227714404324566 1.0013131235886 0.10209
0.10211 4.83885250519886 2.73619809378423 5.86156005013092 0.211025044944799 1.00102716711977 0.1021
0.10212 5.0510444308159 2.75681758944254 5.91800454786123 0.222431073548445 0.987895956521076 0.10211
0.10213 5.05692971176399 2.58716594508026 6.05034711117274 0.21206508292823 1.0104450597206 0.10212
0.10214 4.73723532773977 2.74207045869554 5.99804469146055 0.221256327918302 0.997251888228875 0.10213
0.10215 4.65055314183995 2.75770000545711 5.86759230792174 0.208753085359294 0.994171720409374 0.10214
0.10216 4.77843824565058 2.46669067897303 5.78072255863162 0.203776833770336 0.985485206911845 0.10215
0.10217 4.80205548131484 2.60860616255899 5.7396901068843 0.207871602702113 0.987788356779238 0.10216
0.10218 4.58660137279861 2.93464185095038 5.95577475861324 0.211035383848311 0.999448421513368 0.10217
0.10219 4.54463031359121 2.91910227084025 6.03957526683265 0.210599125357004 1.01851271871533 0.10218
0.1022 4.56434595781992 2.91380162236507 5.94035892325466 0.208486087387287 1.00571746091228 0.10219
0.10221 4.43796349714152 2.97609296939013 5.99762983059894 0.206086499292328 1.00412904989562 0.1022
0.10222 4.13180016602888 2.8793003197983 6.1408645809047 0.19374180094131 0.999726836017719 0.10221
0.10223 4.64620290071442 2.77981516835448 5.92597783943467 0.208264191583027 0.992038087162488 0.10222
0.10224 4.31941911193028 2.62024820121639 6.02835994399035 0.193421743061029 0.982480304194658 0.10223
0.10225 4.55191412097243 2.74646967863348 5.80894460236111 0.205157583008478 0.966733194251418 0.10224
0.10226 4.82918573449791 2.58139592545648 5.68712343165204 0.210745153165029 0.972961974467854 0.10225
0.10227 4.48153150392256 2.46812769791265 5.9706817607564 0.197414311763672 0.984015215373239 0.10226
0.10228 4.41731483184496 2.49079230821401 6.10341399411306 0.193560005353748 1.00996864735157 0.10227
0.10229 4.59112450020593 2.63994576921001 5.87162262512074 0.207178603897984 0.969690238611344 0.10228
0.1023 4.82893242018908 2.68491564063717 5.80924776410754 0.207672349100521 0.994587585968678 0.10229
0.10231 4.83141510798466 2.72009011181096 5.89539273990784 0.209028364866687 0.9993047823192 0.1023
0.10232 4.78496770156964 2.43263778707873 6.16608444557633 0.205218629853086 1.01309913027334 0.10231
0.10233 5.05164472737551 2.60882147547231 6.02285055802609 0.212654853230282 1.01839362752797 0.10232
0.10234 5.05181709889224 2.71301341657841 5.87943667586434 0.211039035577898 1.00196253353873 0.10233
0.10235 4.91983349186081 2.51929516326286 5.87740517369688 0.212609160201201 0.991919001706969 0.10234
0.10236 4.66415322451708 2.47629652826833 6.0398740131482 0.196742197525436 0.99429273871207 0.10235
0.10237 4.65610619542991 2.53729152213478 5.93469860340805 0.202437555070273 0.970602485983713 0.10236
0.10238 4.72555782010408 2.88856479868062 5.87483064253649 0.218835327657589 0.995778924911186 0.10237
0.10239 4.91404976778878 2.92538773432865 5.74608211335843 0.217695998847536 0.973627075670718 0.10238
0.1024 5.07784458883115 2.48086564614418 5.65657123320801 0.215505296721222 0.963505580070086 0.10239
0.10241 4.88487052257936 2.5473538190194 5.82280706424847 0.213275571578976 1.00583762772895 0.1024
0.10242 5.14136578390043 2.77756987829305 6.09086407809996 0.223474692472704 1.03659710316954 0.10241
0.10243 4.87186048512018 2.45097086519232 6.14747321824295 0.205897969454682 1.01613682874224 0.10242
0.10244 4.54697945724656 2.72512600659014 6.08338530081674 0.205957473638126 1.00935840347705 0.10243
0.10245 4.60417839952953 2.58888299323311 6.24347004479782 0.2027728548375 1.01497871149905 0.10244
0.10246 4.73416184799656 2.88481591667859 6.0030038598486 0.209203497749092 1.01589022831789 0.10245
0.10247 4.89956073610531 2.88990374836803 6.04800618216537 0.213907478589822 1.03481821489885 0.10246
0.10248 4.83022274304334 3.01761646122616 6.01561002619902 0.223007298987505 0.983679949937774 0.10247
0.10249 4.66732988825701 2.46631405533987 5.87396484279801 0.190309836829719 0.995899650261305 0.10248
0.1025 4.68940308140835 2.40475026630624 5.91903968708212 0.196427955433041 0.997084144583389 0.10249
0.10251 4.71424418317068 2.48638513422768 6.08444030462271 0.195477242096461 1.02340067907636 0.1025
0.10252 4.66960559137544 2.69946860295805 6.01837776165436 0.214273724477902 0.980794319999918 0.10251
0.10253 4.64274984104139 2.9818967573594 6.10947627102762 0.206454434606987 1.01579813265875 0.10252
0.10254 4.46926726698084 2.88161087964286 5.98577563245996 0.207527706467015 0.977998641299981 0.10253
0.10255 4.72477311373648 2.66049566307449 5.98895052111209 0.202684877641434 1.0193522113311 0.10254
0.10256 4.70884232860114 2.48916581630266 6.06275083739933 0.203194528527078 1.00670880064235 0.10255
0.10257 4.60962381131107 2.11348688795084 5.98532661114815 0.194167151864117 0.981270795158295 0.10256
0.10258 4.51301948479007 2.51080603034081 5.99819446839918 0.187176471425125 1.00140474477449 0.10257
0.10259 4.56915759480784 2.29436799600422 6.12794931925002 0.194516033131759 1.02148827854447 0.10258
0.1026 4.5742526704342 2.47943169689554 6.04927823794359 0.194115633508929 1.00047766689201 0.10259
0.10261 4.79609815138186 2.70074631246897 5.90911314341981 0.207632791577335 1.01552066942966 0.1026
0.10262 5.18174495714866 2.94169468947786 5.77318030814057 0.230638489807799 0.991077051159265 0.10261
0.10263 4.97138185354946 2.98345137724943 5.81822861240687 0.226200860629043 0.991853349873361 0.10262
0.10264 4.67065361358434 3.06970769343734 5.86399634537572 0.217191530687297 0.959326655293475 0.10263
0.10265 4.68718243650558 2.89799461348296 5.95794078542214 0.211546138928963 0.986768668818608 0.10264
0.10266 4.54106873029472 2.71134120381779 5.98452794717074 0.201483898714096 0.989982589287163 0.10265
0.10267 4.66821134438172 2.83755710052682 5.97212011652628 0.211219948493743 1.01117309950878 0.10266
0.10268 4.62466779472152 2.51952152227253 5.8705825611748 0.212921384538498 0.972631398969183 0.10267
0.10269 4.76578860092408 2.6267428967365 6.08465420419895 0.203905695332223 0.999921584064926 0.10268
0.1027 4.49217190222124 2.6132238853461 6.03283348767096 0.195295802606622 1.00789423027666 0.10269
0.10271 4.87082127563913 2.80258630136966 5.96212480360842 0.211247474925623 0.996202204323714 0.1027
0.10272 4.7872210463865 2.87477223583941 6.05844674179064 0.213947438160141 1.00808415949403 0.10271
0.10273 4.84156534234326 2.73102360555943 6.07537702416549 0.210746750169274 1.01449834519969 0.10272
0.10274 4.82505096592722 2.85322102286428 5.95449157668729 0.218546487925169 0.997926940480517 0.10273
0.10275 4.66455892627853 2.82481527290442 6.08313013780333 0.204262502747956 0.99040492491705 0.10274
0.10276 4.65771210338036 3.12823638064725 5.86135797618695 0.219642561472121 0.996839057819596 0.10275
0.10277 4.80305014554174 2.88560310479475 5.87140060230824 0.221496631219648 0.986083531776303 0.10276
0.10278 4.7821687019176 2.29834513602931 5.95495887326725 0.198163046483931 1.00097486773771 0.10277
0.10279 4.8385193673838 2.50720228545842 5.80906721634432 0.206087223550312 0.956095368049039 0.10278
0.1028 4.7029564624357 2.52821148184255 6.08806373099329 0.203570559359377 1.00374340963044 0.10279
0.10281 4.80886908429952 2.63186378497639 6.15802170843715 0.204498557867946 1.04182295342006 0.1028
0.10282 4.44725987647185 2.66110382023218 6.01602091636022 0.201204383577908 0.999409246920207 0.10281
0.10283 4.49520010622856 2.85661540883128 6.12993247999405 0.210496412484696 0.998973648137403 0.10282
0.10284 4.73114002600003 2.78020194663625 5.95293018380995 0.201953440445997 1.0133094208552 0.10283
0.10285 4.79108263385035 2.51632293630273 6.27228900100761 0.208128653312433 1.02707622096169 0.10284
0.10286 5.0038218769771 2.52602538023893 6.22076622169915 0.20369055699547 1.04074846595843 0.10285
0.10287 4.914167660786 2.50480214442929 5.8003039332743 0.204230480425587 0.995781082939907 0.10286
0.10288 5.24770379070148 2.58998286598705 5.85375348691174 0.221437874129277 0.996912576656081 0.10287
0.10289 5.08170517189316 2.43505035510188 5.88880715728494 0.213696755993354 1.02177822589456 0.10288
0.1029 5.10064624009523 2.85302239783124 5.9625101865464 0.218591692494595 1.01417542551537 0.10289
0.10291 4.93331230962576 2.75330796973038 5.89841728983326 0.2173566860326 0.999059475370684 0.1029
0.10292 4.7866755172598 2.7514116158354 5.91783363302204 0.204794683969478 1.02135588878288 0.10291
0.10293 4.79050470250768 2.71695638159629 6.08762861923319 0.209152396874746 1.01607783009366 0.10292
0.10294 4.46402504520457 2.74652601812265 5.97330390646244 0.20469191980839 0.99818416023065 0.10293
0.10295 4.78256210306201 2.60783077496945 6.22926848950527 0.203222367445013 1.0405709467735 0.10294
0.10296 4.71414492224849 2.60428357968624 6.0094562132256 0.200951530256268 1.03046816359388 0.10295
0.10297 4.9230928841964 2.57597199399008 6.12129033664295 0.213804777885704 0.991864135561631 0.10296
0.10298 4.84781461976985 2.84203202859059 6.1436306682452 0.221471562433814 1.0109654002978 0.10297
0.10299 4.77517050066932 2.63623619604573 6.16114191632191 0.205246224328122 1.03167450627615 0.10298
0.103 4.4903732722763 2.70750222103221 6.25791617689103 0.2026097533104 1.0064341380267 0.10299
0.10301 4.45566622315873 2.81610256700033 6.02901061433689 0.201772289588296 1.0130787474917 0.103
0.10302 4.53406811504991 2.69218495305564 5.93838924110339 0.202108102614132 0.988103608922718 0.10301
0.10303 4.45623985841402 2.67502286700916 6.04859865826225 0.199812124709955 1.0094815397053 0.10302
0.10304 4.79149723661048 2.92169310734202 5.84330835270151 0.225359412596957 0.965870722326724 0.10303
0.10305 4.9217584770414 2.93154024672303 5.69305712234206 0.221106002873939 0.976603946675402 0.10304
0.10306 5.0084815756625 2.82566047214085 5.89517597358361 0.218697096265278 1.01130766950264 0.10305
0.10307 4.90059087153754 2.89863074513953 5.89856574223081 0.222303051407526 0.984874744980042 0.10306
0.10308 4.44545089113066 2.58363873013072 5.94114742242962 0.20114681431818 1.00501684728316 0.10307
0.10309 4.49165023311128 2.69197040685492 6.03747496953366 0.198089576443379 1.02793842633122 0.10308
0.1031 4.59690870041905 2.91132444748535 6.3194953428525 0.213142343889965 1.03239033891969 0.10309
0.10311 4.6553383978261 2.96003330255167 5.90736183434457 0.217349261206792 0.961117556114644 0.1031
0.10312 4.98624876263218 2.99725567585541 6.01323232783971 0.226580644149872 1.03627635136034 0.10311
0.10313 5.08295790078354 2.76421017897262 6.08919588161309 0.221380388346581 1.03247083206899 0.10312
0.10314 5.24075667732463 2.92967534557829 6.08596645900925 0.230278609338999 1.01653868579473 0.10313
0.10315 4.98980373298096 2.82483091324078 6.01062124039659 0.221016486123123 1.02097817790309 0.10314
0.10316 4.45261662119597 2.32092695408816 5.96565667569045 0.195414819051748 0.987782892453083 0.10315
0.10317 4.51914507602601 2.43986677305484 6.18841216255928 0.189780339447328 0.98322221005288 0.10316
0.10318 4.77241438164435 2.54281502044637 5.95143815617348 0.208197715164979 0.973187852483824 0.10317
0.10319 5.10546328363572 3.06155400975319 5.93069484205401 0.23480902490995 1.02586724372636 0.10318
0.1032 5.16872160770772 2.85434215256881 5.88791793045131 0.217135964998951 1.02237345607894 0.10319
0.10321 4.82006129459914 2.72342769398098 5.98950003850462 0.208535289582292 1.0100245346538 0.1032
0.10322 4.67280904469388 2.40847839499978 6.15775233856493 0.202006492920812 1.02033790763634 0.10321
0.10323 4.7681944468816 2.42662153740153 5.96160262637855 0.200881919156437 1.01566798132545 0.10322
0.10324 4.87086554527495 2.97748360798886 6.17941605816768 0.221755930642012 1.02069052900974 0.10323
0.10325 4.64013183234709 3.10879593443892 6.2237588123104 0.217849861086769 1.0229438838971 0.10324
0.10326 4.41578243699652 2.9628934600291 6.0294034575003 0.207217894892439 1.02452903386372 0.10325
0.10327 4.53263024154778 2.95735560289235 6.08795788346606 0.210988443860437 1.01187403871061 0.10326
0.10328 4.4675276609609 2.62336095997916 6.21625868380446 0.198532933173173 0.992493037570258 0.10327
0.10329 4.6836974946871 2.4120648189809 6.0974810492147 0.199320322641449 1.0151141951676 0.10328
0.1033 4.86390047180788 2.66694382999709 6.15376350856124 0.205323390572692 1.04120675788335 0.10329
0.10331 4.73302255721211 2.59594612280777 6.17075786617394 0.209915436522846 0.994128912354527 0.1033
0.10332 4.97323936896152 2.74622681700489 6.20443301788849 0.220340365146655 1.05375703093694 0.10331
0.10333 4.78054243981155 2.76383342565864 6.34142392399006 0.20902517306354 1.0497350961214 0.10332
0.10334 4.63798996930335 2.88490040158678 6.24006741076661 0.21570421768372 1.0298847322786 0.10333
0.10335 4.85798023132217 2.73616354377804 6.1127050904509 0.217232208357599 1.00139539393951 0.10334
0.10336 4.97726556034961 2.85474692747435 6.01050146695514 0.221845532435695 1.00375168879064 0.10335
0.10337 4.90923260956583 2.81161411365897 5.93442463057087 0.216539923176333 1.02607051602803 0.10336
0.10338 4.96903165550937 2.60192158574043 6.11860317729327 0.208443845285267 1.03720459777203 0.10337
0.10339 5.17114633878802 2.60538888306766 5.98423645690943 0.215889921843812 1.02416860240867 0.10338
0.1034 4.76042050983792 2.58391196096607 5.90506865547994 0.208175430759801 1.00124007327095 0.10339
0.10341 4.9375813981012 3.05769460460292 5.86921558044841 0.225668797371687 0.981938701486538 0.1034
0.10342 4.9280417756339 2.99806440945956 5.91206137660252 0.221000249779466 1.01432918665091 0.10341
0.10343 4.75156797542547 2.87605439319031 6.16581338306471 0.218610459426181 1.02211029934568 0.10342
0.10344 4.88673892882227 2.93389190171954 6.10823344018775 0.210682141132151 1.01804876475171 0.10343
0.10345 4.97252659703412 2.74321664292461 6.04743991626761 0.218450643820988 1.05686739781666 0.10344
0.10346 4.68182354687305 2.68687773095374 6.14902716749191 0.210134854555235 1.02229158685721 0.10345
0.10347 4.92228712202164 2.69413790145634 6.07598398487681 0.208554727890615 1.03839949718906 0.10346
0.10348 5.09570330919495 2.58189321989549 6.25475090808385 0.216956188636687 1.0479887887744 0.10347
0.10349 4.88014688288478 2.6724504701431 6.02219322954206 0.207410956254732 1.02088852345761 0.10348
0.1035 4.92897510270742 2.61920397880083 6.03211854905617 0.206692718735501 1.03503201033048 0.10349
0.10351 4.73411676966684 2.88798505303002 5.9609721442049 0.208905657978573 1.02726029951997 0.1035
0.10352 4.89945648125941 2.7385274839361 5.92484657932798 0.215200303974621 1.01982553156069 0.10351
0.10353 5.18321908548799 3.14497152149537 5.8722222621649 0.23507043597509 0.993108034333724 0.10352
0.10354 4.90162713826696 3.11265347481649 5.86348204063064 0.225062142336553 0.994692816860051 0.10353
0.10355 4.67260790594096 2.94243752642858 5.98269530600782 0.215991074810712 1.00165971061804 0.10354
0.10356 4.46243749889197 2.37572244787624 6.05649538969903 0.188796297974777 1.00013801688478 0.10355
0.10357 4.40493459565785 2.85170240094228 6.13980612288697 0.206963243573641 1.01920829433182 0.10356
0.10358 4.64448472308681 2.6820592902116 6.11639947050986 0.207324987115584 1.0290285179379 0.10357
0.10359 4.82207177430307 2.73314413380108 6.34587549140754 0.21527312116334 1.02976729191177 0.10358
0.1036 4.69475476573848 2.80757528951997 6.24444619069319 0.210078537161586 1.0137137418212 0.10359
0.10361 4.68939201137748 3.19291122617829 6.00859256235041 0.214370696450173 1.02477590132453 0.1036
0.10362 4.95319971497727 3.14114445699073 6.15995396331089 0.225529629770235 1.04100390200072 0.10361
0.10363 4.76579618347899 3.15275986149448 6.15150817939666 0.225536521443172 1.01967214158852 0.10362
0.10364 4.64781815965591 2.76396328735017 6.05549787397516 0.211154928994994 0.99791999710668 0.10363
0.10365 4.71490868085389 2.75307661492898 6.0592366259739 0.203663193268251 1.02516032351948 0.10364
0.10366 5.02528381468509 2.46120388781372 6.16296292739105 0.211713656647141 1.03802542441982 0.10365
0.10367 5.18152133281505 2.51993093582363 5.97394748811465 0.21969707797162 1.00500966823056 0.10366
0.10368 5.07740733368025 2.80508819637285 5.99034821564142 0.22152116615428 1.03242551328354 0.10367
0.10369 5.10447782787878 2.4960521193703 6.08797935601742 0.205754375048048 1.03595121536404 0.10368
0.1037 4.89852782153146 2.74056274195974 5.91587872132191 0.21449551699172 0.994822137309589 0.10369
0.10371 4.82415127613241 2.59897712398632 6.0811591178254 0.209020960487359 1.03222604427689 0.1037
0.10372 4.83408844961842 2.52235734772668 5.97627932291007 0.2068175925751 1.01433824744474 0.10371
0.10373 5.0186608575103 2.63459083300922 6.20352405511001 0.213886024419958 1.0765113407237 0.10372
0.10374 5.09258383502193 2.73864729535155 6.18599080497415 0.218077134342724 1.03937826482239 0.10373
0.10375 5.1551125856282 2.46193349420842 6.25913987177327 0.213183121130168 1.05267717709906 0.10374
0.10376 5.29426031626722 2.60448520876288 6.12003653989434 0.221811561069911 1.04343649849382 0.10375
0.10377 4.91778802210886 2.74324061378501 6.08756547692618 0.211737432055228 1.05411289057413 0.10376
0.10378 4.87229158697829 2.71633536678415 6.13498078101206 0.216212619655962 1.03462154152583 0.10377
0.10379 4.70206482401788 2.65254860026912 5.97005308216721 0.206701559280672 0.990658613599555 0.10378
0.1038 4.7268803316089 2.95166573029843 6.17438556702998 0.214587839878639 1.04101293731987 0.10379
0.10381 4.96871144669798 2.87839245655546 6.08831308441926 0.226708236273898 0.997818992499689 0.1038
0.10382 4.97219108626254 2.92756139942427 5.80603442467619 0.230971290531396 0.989686146589488 0.10381
0.10383 5.22997701055324 2.8606086200071 5.99382980861424 0.223630579288802 1.03788360535876 0.10382
0.10384 4.97260591010661 2.68285460244404 5.82574063284969 0.212045947868153 1.00679316484193 0.10383
0.10385 4.95390448962393 2.76992589535258 6.01685294769474 0.217670931836335 1.00873244229103 0.10384
0.10386 4.40813177396441 2.48174182505815 6.10569202928273 0.187530575895807 0.994316680988661 0.10385
0.10387 4.42603116742467 2.71747351344742 6.15316430382118 0.199121003774929 1.01337772452008 0.10386
0.10388 4.21996002710995 2.62743244867911 6.37818961959639 0.19403941276163 1.03192395252233 0.10387
0.10389 4.54431677742462 2.86281214859679 6.3823090369795 0.204362262362479 1.04045893590288 0.10388
0.1039 4.84323003796291 2.52757808352874 6.31739368290961 0.212855333740009 1.05810030517375 0.10389
0.10391 5.00853456585775 2.89754764590714 6.25152177490684 0.22174769830665 1.03839805163267 0.1039
0.10392 5.06092780772596 3.00183158803532 6.22280169155251 0.223441259313893 1.05308055993259 0.10391
0.10393 5.01834052811811 2.98855375961843 6.06866705759025 0.233826201112025 0.993437009994474 0.10392
0.10394 4.86985691433251 3.00625452785322 5.86676476452631 0.222939011205137 1.01389341239461 0.10393
0.10395 4.81032268721558 3.11205866975315 6.0464077155882 0.223165336839047 1.0196255641494 0.10394
0.10396 4.95484317733151 3.12376187739706 5.82214136929995 0.221982396262622 0.979525061263796 0.10395
0.10397 5.24890694294644 3.15219549301509 5.86394959919845 0.231265509962293 0.987998762334715 0.10396
0.10398 5.05745925238044 2.78022104007282 5.85112215836187 0.221644186044941 1.02086426443529 0.10397
0.10399 4.89316573300881 3.09841761611898 6.03809491776691 0.213669710104206 1.0361530767905 0.10398
0.104 4.80775990381374 2.74569613895126 5.9053195682415 0.214608358749323 0.993103623359248 0.10399
0.10401 4.8490119927464 2.29850639550223 6.1660681893737 0.19991548720867 1.04328526109407 0.104
0.10402 4.74561496828883 2.83723575755116 6.17530387120058 0.2074741329069 1.02304516038491 0.10401
0.10403 4.83332433982895 2.82040495453459 6.3179353750683 0.218212520753353 1.05269795551099 0.10402
0.10404 4.83591254853829 3.02038538066856 6.40357265532205 0.220585594835077 1.08265250574139 0.10403
0.10405 4.90773973047647 3.0794692787519 6.40679860063393 0.230980726349007 1.06094817657945 0.10404
0.10406 4.81420363387247 2.99667236828591 6.07898827663139 0.214110693605007 1.02505261234091 0.10405
0.10407 4.76375067417879 2.58249564499614 6.05031683886549 0.200023753487546 1.01090539284906 0.10406
0.10408 4.85349112044689 2.32911437473883 5.97834237087877 0.203624640122818 1.00532282851595 0.10407
0.10409 5.30859271444425 2.41905641293913 6.02169787213539 0.221869120551557 1.01570214010986 0.10408
0.1041 5.30227600170682 2.69777517638776 5.89146140515762 0.228440428846927 1.01625613320313 0.10409
0.10411 5.27435482528985 2.90247341824141 5.9431632902992 0.232035355374754 1.02688769842678 0.1041
0.10412 4.72572389171765 3.1145969002672 6.10090123930907 0.210950022115048 1.05885446083207 0.10411
0.10413 4.73226173852846 2.85895502348913 6.19000634228216 0.211906620071691 1.0199418978171 0.10412
0.10414 4.68724634605733 2.77564384983438 6.36868183765282 0.209606287216475 1.03004956673475 0.10413
0.10415 4.60279027527677 2.81739405762612 6.34184785082612 0.211904147420996 1.03789826302068 0.10414
0.10416 4.85809100975781 2.76036531192872 6.28364265532586 0.214719466422297 1.05070259206663 0.10415
0.10417 4.91276560878266 2.87649862363955 6.38410246021682 0.215166392547007 1.05327482222893 0.10416
0.10418 4.65305212993311 2.87932722307859 6.23576169098731 0.207726306879124 1.02047047411057 0.10417
0.10419 4.92600028181125 2.8766675466706 6.28262068448604 0.214944939955997 1.04405324017351 0.10418
0.1042 4.87896810807592 2.98615059430584 6.21887034546017 0.221843985230679 1.04207144900856 0.10419
0.10421 5.09000211041143 3.10279412612718 6.17968528383829 0.237760402027687 1.03956132999401 0.1042
0.10422 4.77180324240439 2.94930320032056 6.07935326838015 0.205466332447607 1.0334403696953 0.10421
0.10423 4.63177969913482 2.84800162090794 5.92773276236267 0.210052917537606 0.99952393771811 0.10422
0.10424 4.85490432686643 2.72750614740598 6.02026420631699 0.215347033597908 1.01705849278522 0.10423
0.10425 5.25455373608826 2.87236445118538 6.09888943298499 0.228701025942648 1.04899621886251 0.10424
0.10426 5.13406502799812 2.65058872257348 6.15486693563898 0.213774957603163 1.0497476563468 0.10425
0.10427 5.03845453478759 2.43167724665384 6.19231793020251 0.205361585950311 1.05483460151633 0.10426
0.10428 4.99127525629225 2.36953081124198 6.31326918558429 0.209810377846575 1.04254725012079 0.10427
0.10429 5.07944948368026 2.72504217413129 6.1947937988926 0.212510163532708 1.06684624402508 0.10428
0.1043 5.08496120423934 2.97794752513922 6.13704216159328 0.227663070657605 1.04351378014652 0.10429
0.10431 5.00622572030796 3.02262823132071 6.27758492455354 0.22624026379729 1.06257057148848 0.1043
0.10432 4.89115360704937 3.0675776223254 6.2149947971895 0.225468155618008 0.999280837106981 0.10431
0.10433 4.68474799087673 2.82158751163669 5.95736372874326 0.209764465624637 1.01047348046469 0.10432
0.10434 4.73690908823792 3.03804221965968 6.13911916597369 0.224909331537452 0.992805811950436 0.10433
0.10435 4.85869146179851 2.58279319673319 5.82926706537346 0.20274374299796 1.00797450851147 0.10434
0.10436 4.95930040537992 2.76105988358434 5.93933780425694 0.21833673405752 1.02301036724893 0.10435
0.10437 4.79040824416843 2.73484029510594 5.99163563100986 0.206547868693437 0.999543674805752 0.10436
0.10438 5.10637187020919 2.95882652881396 6.15838733525924 0.223166265535561 1.0452177965788 0.10437
0.10439 5.06712462873203 3.26101086597035 6.15269556479157 0.239242011227068 1.02895297698834 0.10438
0.1044 4.92975859146539 3.33051933816551 6.1496601656038 0.234695776653179 1.00726236185032 0.10439
0.10441 4.6277254480438 2.99376980432953 6.29720696561964 0.218308575125833 1.02719177742464 0.1044
0.10442 4.58735827430421 2.59878205777033 6.24654309285643 0.196896300572729 1.0366172933626 0.10441
0.10443 4.78006773787295 2.65408859012134 6.36345982790587 0.209059368803423 1.06153981529774 0.10442
0.10444 5.05708083768274 2.78701692620888 6.34272221190282 0.21354903041104 1.0704358388773 0.10443
0.10445 5.07180799818397 2.8098204815517 6.12501075307536 0.21838335836169 1.03888093494433 0.10444
0.10446 4.86145319333015 3.12728904575329 6.22290768531844 0.219438581261453 1.05658184643594 0.10445
0.10447 4.89222760775841 3.05600523191342 5.95480567579967 0.220387641946784 1.01339464372196 0.10446
0.10448 5.029453898653 2.99813186723229 6.13036585657214 0.228038055707791 1.03827280121217 0.10447
0.10449 4.89848561621257 2.74966378615463 6.18155498882344 0.209715854044179 1.02951590839926 0.10448
0.1045 5.0141535740244 2.77767985306982 6.04407598970266 0.21528110616727 1.03695933885422 0.10449
0.10451 4.9730916309017 2.44438486610728 5.9365329108035 0.207534664239663 1.01440624672738 0.1045
0.10452 5.15566460364787 2.73022901530157 5.91412979607053 0.213822276019162 1.01464376551073 0.10451
0.10453 5.3805178794453 2.83417120264269 6.09008908568485 0.228296679182876 1.03271093203271 0.10452
0.10454 5.19780779476285 2.74767666850622 6.25741085606734 0.224353219278871 1.04476121153936 0.10453
0.10455 5.30568623198023 3.19109372073952 6.23851241351925 0.231921723178355 1.05005065988417 0.10454
0.10456 5.06506559806001 3.04313168672045 6.15483210413337 0.230671839455897 1.05054572030954 0.10455
0.10457 4.6775799563647 2.83313351035528 6.15612581938717 0.210186784244226 1.04103705841806 0.10456
0.10458 4.74293361896403 3.09762748308568 6.13668146473666 0.217821060364112 1.04207024583982 0.10457
0.10459 5.02253677729035 2.77776273482997 6.44571234392601 0.217523917376181 1.07184141267002 0.10458
0.1046 4.86691770708621 2.60095864692739 6.22184047604023 0.208495771517225 1.02294593617047 0.10459
0.10461 5.09071799355985 2.65442080934132 6.4429555299408 0.21532828031502 1.08998544576638 0.1046
0.10462 5.03469266768958 2.72452916473375 6.2964043318991 0.220827291907813 1.06577067714486 0.10461
0.10463 4.97523938728304 2.63985896179473 6.18857653962331 0.216994647038807 1.03338073029604 0.10462
0.10464 4.97253725483901 2.98620304109751 6.254062023772 0.229662055682016 1.02771105444468 0.10463
0.10465 4.98289699557892 2.86686051514398 6.21278944018632 0.222003227141599 1.04840605037372 0.10464
0.10466 4.60073434497275 2.75761196676061 6.23815356045048 0.200681922940099 1.02352229817468 0.10465
0.10467 5.0298984062762 2.76234023430258 6.23895109257393 0.22075021381885 1.05489536773365 0.10466
0.10468 4.98855957198283 3.06712140625276 6.04527248309918 0.231216765530302 1.01404856130173 0.10467
0.10469 5.24189387821301 2.97840775509468 6.15149741911681 0.234345475916803 1.05675077986195 0.10468
0.1047 5.39396164719384 2.94338365371289 6.22620016634155 0.241206803740091 1.04610754054567 0.10469
0.10471 5.1039101914926 2.81890588132544 5.93846032750073 0.222868753306021 1.02856013507057 0.1047
0.10472 4.99671984985229 2.64550002094424 6.09676961410023 0.21900555878329 0.994678889334322 0.10471
0.10473 4.71851893532078 2.91503282721187 6.03117115766133 0.21001008527727 1.0361182635695 0.10472
0.10474 4.70038234112476 2.90701003854657 6.42167773647812 0.216018561639209 1.0611904490526 0.10473
0.10475 4.92442087549354 3.30549561272583 6.21066570578289 0.239439284129517 1.03015209021375 0.10474
0.10476 4.85645146448459 3.32018411336222 6.22909676494553 0.227873924498126 1.05994536525195 0.10475
0.10477 5.00282374214054 2.76527580979892 5.97958561406537 0.216718941685552 1.02532129248142 0.10476
0.10478 5.14506395140738 3.17268823919506 5.99404077198834 0.231472558774643 1.03282907624083 0.10477
0.10479 4.80682766602571 2.84096479996567 6.25943355066507 0.214700333780077 1.04235439566033 0.10478
0.1048 5.00331762154375 2.78595042983591 6.29421933462691 0.219338780510945 1.06015219677443 0.10479
0.10481 5.13408077449462 3.03640952008017 6.37814613142834 0.23201133131194 1.04979687649682 0.1048
0.10482 5.10060067849658 2.77144795671325 6.09329206948699 0.212123039262243 1.0508718871679 0.10481
0.10483 4.73211596782065 2.67283064742545 6.22128493988465 0.212458301962931 1.01134568504944 0.10482
0.10484 4.90870120487469 2.7037555573776 6.24370018698383 0.210983551716549 1.04719623832631 0.10483
0.10485 5.04329042806958 2.69322253713158 6.35535017908009 0.220620140635314 1.05478644029294 0.10484
0.10486 4.90679017946768 3.02372107043966 6.28656514647543 0.220991552881913 1.0620647299242 0.10485
0.10487 4.71038853347942 2.63935457290017 6.22909013223841 0.204870896957557 1.02743167483112 0.10486
0.10488 4.898069642012 2.84125270854566 6.13567040292653 0.20756320416217 1.02133963863369 0.10487
0.10489 4.94458373733546 2.86333910365974 6.12345729402707 0.217989720067117 1.02734255324368 0.10488
0.1049 5.18344865273814 2.8647542891533 6.14894549000363 0.223809700416186 1.05459084070456 0.10489
0.10491 5.2474493523244 3.17270336172112 6.07825048836891 0.243323819392053 1.02620460991628 0.1049
0.10492 4.9444831677091 2.95759671415628 6.13263250454893 0.213513952950639 1.02897455421992 0.10491
0.10493 4.644073427179 2.72756984452174 6.25223102130209 0.2045600351002 1.02053971305027 0.10492
0.10494 4.61556509221684 2.59290558032196 6.31218629324379 0.200410788980141 1.06509885571102 0.10493
0.10495 4.92675465506987 2.7997197788271 6.32788604547654 0.221713902046896 1.04184203416711 0.10494
0.10496 5.00654879086318 2.89018414406595 6.36221460365477 0.223307701639848 1.06985264905265 0.10495
0.10497 5.1487249261043 3.17335171569676 6.20338771465949 0.231426369682567 1.06058717359211 0.10496
0.10498 5.18051616185693 2.74951689815154 6.14559738748881 0.226480596956668 1.0178114444496 0.10497
0.10499 5.22369697917301 2.93064243568135 6.27336025926041 0.228837259226915 1.07254621000489 0.10498
0.105 5.08121431523543 2.82789841183161 6.34685714909438 0.224451258342217 1.05091464951827 0.10499
0.10501 5.00284514710486 2.55594903931311 6.35526888427787 0.213747078619428 1.05708439464661 0.105
0.10502 4.91999022934816 2.73974573749945 6.14100480071432 0.217876348373097 1.03546216911212 0.10501
0.10503 5.05842458742869 3.24192092556692 6.12945052969103 0.232132249585276 1.0394890836422 0.10502
0.10504 5.16676509589162 3.10557256984979 6.26804838521691 0.23394228217907 1.04617862048698 0.10503
0.10505 5.15147375033936 3.25375708388263 6.30326787604666 0.239623353176637 1.07513641292625 0.10504
0.10506 4.88474152658202 2.79532505554242 6.2695221815601 0.207041516875328 1.08108596394101 0.10505
0.10507 4.6755001166601 2.72357326735199 6.16404363888482 0.207337797494327 1.00948369686797 0.10506
0.10508 4.8499323619228 2.961283557052 6.16020424399536 0.227500551847026 1.02553169560867 0.10507
0.10509 4.95516535703485 2.7277078398215 6.30238565750627 0.21189199510023 1.07199244916174 0.10508
0.1051 5.07276872779475 2.78200128986704 6.25568574261592 0.217322849993789 1.06839145040261 0.10509
0.10511 5.18603692659603 2.7373998286175 6.26945094993737 0.221887323203306 1.05129039276917 0.1051
0.10512 5.07950182985778 2.65364809212679 6.14070425392295 0.222090964105722 1.0335662760145 0.10511
0.10513 5.28154476753236 2.78745064041309 6.32146497307256 0.227635096001943 1.06270180701153 0.10512
0.10514 4.82089308626023 3.1066005027142 6.34149260534717 0.219839035701685 1.05720627571212 0.10513
0.10515 4.90760545755532 3.08678382162238 6.3090837723593 0.227161418447997 1.0481175476709 0.10514
0.10516 4.97543801298929 3.05463939276802 6.14821868561248 0.223854710093989 1.03641210059748 0.10515
0.10517 4.88288677357268 2.80374227585436 5.91880484187525 0.218224797904522 0.996148300533355 0.10516
0.10518 5.320880080765 3.05087047704627 6.08393519004904 0.236521973992617 1.04176270436614 0.10517
0.10519 4.99095790038093 3.06504105894064 6.15362475964161 0.222793412964109 1.04592760020595 0.10518
0.1052 5.09907695423201 2.93610386865339 6.26735413079381 0.221303157051278 1.04220899274286 0.10519
0.10521 5.00035495919744 2.8446034815472 6.28652150557694 0.217738954803877 1.0451117204224 0.1052
0.10522 4.78738774390211 2.80221579066486 6.3405434774062 0.221319419426868 1.0338190546394 0.10521
0.10523 4.77992649223833 3.05093288561197 6.15274339044358 0.226203646921479 1.00742706049123 0.10522
0.10524 4.93111956184574 3.07556526692129 6.32532365208486 0.224663300047956 1.06945006994149 0.10523
0.10525 5.17893650099992 2.7415249256482 6.32531415332226 0.228467034592055 1.07789578203393 0.10524
0.10526 5.1081210692765 3.16159212143593 6.32840782719904 0.230731023697954 1.05019833866325 0.10525
0.10527 4.98579606007872 2.99184567248675 6.35649047140737 0.220123763793202 1.04860792162331 0.10526
0.10528 5.09193670462528 3.02301901319006 6.23270669884455 0.229378278179408 1.04441104315708 0.10527
0.10529 5.20308419854229 3.16835726915534 6.12125167704473 0.226161120576211 1.04223973121493 0.10528
0.1053 5.05516217467127 3.3066827300261 6.12390197802743 0.240215103630529 1.0188640359985 0.10529
0.10531 5.10678627450587 3.02858252614027 6.07123358063355 0.22146786464875 1.04751601029172 0.1053
0.10532 5.15167904973288 2.99277035688179 6.21818184262735 0.229915140192708 1.04670594924029 0.10531
0.10533 4.95987728108343 3.00053431460183 6.00938606803239 0.225323852626457 1.02266640300935 0.10532
0.10534 5.18265524438223 3.2365952465782 6.09508901189384 0.237215194590549 1.05135864909972 0.10533
0.10535 4.96188917819506 3.05613865420161 6.22325297672919 0.220961240696649 1.04470474434155 0.10534
0.10536 5.02753832050905 2.95896516270957 6.14713394051806 0.222004779867437 1.05509743745286 0.10535
0.10537 4.75386504172013 2.69253298717805 6.38786487537654 0.208374649043132 1.05212848761056 0.10536
0.10538 5.07696457063458 2.93183227236681 6.35025476774518 0.221615717023251 1.06930952064157 0.10537
0.10539 5.18421146762952 3.03668212382865 6.43438030042876 0.227323486411583 1.08305947601714 0.10538
0.1054 5.23003315387619 2.95121904828755 6.29338757738243 0.2287721890904 1.05741497119553 0.10539
0.10541 5.05931306599619 3.19065816226815 6.31761133535191 0.228741853834853 1.06237919561338 0.1054
0.10542 5.14029969061433 2.72833913172161 6.27494452830462 0.229121374115509 1.05371703600014 0.10541
0.10543 5.07388902821119 2.69501307007905 6.37466269825606 0.21935565782903 1.06940924231203 0.10542
0.10544 5.09277036993116 2.64732651098958 6.24860122716188 0.216537919554237 1.07697969267763 0.10543
0.10545 4.82494283078664 2.7701106543977 6.23895007003557 0.217574665724065 1.03100361728082 0.10544
0.10546 5.32304113964004 3.27271672164994 6.13118812895118 0.23778240126232 1.06311504200261 0.10545
0.10547 5.3237139556151 2.89631620689817 6.21413416598151 0.227906889579496 1.07441520055696 0.10546
0.10548 5.1830248275548 2.88254007972029 6.163100295234 0.217380648526786 1.04473020450658 0.10547
0.10549 5.07344597811567 2.79733121284863 6.32649122629047 0.223246970681566 1.0767422180313 0.10548
0.1055 4.9985039646522 2.89318879008292 6.19066432066383 0.225219871046854 1.02293601157161 0.10549
0.10551 4.83990146817066 2.95547932409365 6.13583049562614 0.215163375349372 1.04685964362371 0.1055
0.10552 5.10140155614379 3.01529084654003 6.28128199959196 0.228684034039705 1.05858557720428 0.10551
0.10553 4.89676813047552 3.0055360084352 6.28768649985818 0.219003321265706 1.03502916163677 0.10552
0.10554 4.67995844318497 3.08430336273408 6.20631614352455 0.218664261290207 1.03198853268349 0.10553
0.10555 5.23478833829476 3.12797133194523 6.34147954967135 0.240442478938301 1.06502536935518 0.10554
0.10556 5.45598199961331 3.0941891872285 6.18784847832296 0.237147593796185 1.07946746166458 0.10555
0.10557 5.23651630905041 3.0018395073254 6.29180671205055 0.240295460582695 1.05472018193936 0.10556
0.10558 4.98151379119354 3.01190597884257 6.19919127083226 0.227735762519639 1.03489693152441 0.10557
0.10559 4.9561309559592 3.12054319374548 6.15170443528424 0.224094152111729 1.04267025917252 0.10558
0.1056 5.00899452953841 3.2967748291016 6.18329334612816 0.228583658640354 1.06223309145143 0.10559
0.10561 5.091646828298 3.16488280961061 6.15111005270772 0.235609946173178 1.0121515006335 0.1056
0.10562 4.96148308739164 3.15119290322235 6.23257460465571 0.220194101512414 1.03485946914243 0.10561
0.10563 5.23181036187852 2.96003504541581 6.39132795328861 0.225062096526139 1.05608073037542 0.10562
0.10564 5.0371090783909 2.87109495876303 6.36239431883921 0.215094712688967 1.05162577311974 0.10563
0.10565 4.90836707309712 2.53166854061054 6.42945856327927 0.213292554693811 1.05145001315304 0.10564
0.10566 4.94792617916672 3.02343362505513 6.51742740908667 0.223834310806963 1.11817757792807 0.10565
0.10567 5.02523218116028 2.88003939300653 6.49159065326429 0.221726131068343 1.06548477199621 0.10566
0.10568 4.92497409790617 3.06860961980812 6.30409186385882 0.22217361027455 1.05063878385122 0.10567
0.10569 5.1384181024402 3.00309612133231 6.00981434789508 0.230635231507114 1.03333558905323 0.10568
0.1057 5.0271665854594 3.08398883773771 6.1511818880933 0.234937518191135 1.02678058099947 0.10569
0.10571 4.96587189011374 3.0754932059395 6.19231704365771 0.231271419318904 1.04834956417883 0.1057
0.10572 5.22673011837442 2.68920626058185 6.04719974377784 0.222955137186955 1.04886240910477 0.10571
0.10573 4.98445479212093 2.64828616211483 6.1503575610364 0.218963990074246 1.04167117322726 0.10572
0.10574 5.0642332512962 2.61447031663763 6.32211015273342 0.216065369334502 1.08456113476944 0.10573
0.10575 5.25797936939537 3.08420440135899 6.35688494025581 0.241077640140496 1.05994945813625 0.10574
0.10576 5.31042318471372 3.08313999366193 6.35896963143469 0.230784341701243 1.07979577088841 0.10575
0.10577 5.00091860072856 3.17449921916414 6.37091204915338 0.227815557851855 1.05998027819606 0.10576
0.10578 5.11902472986332 3.02745434315196 6.53214678036695 0.229264725109814 1.08852966883502 0.10577
0.10579 5.02755936991889 2.76323669081133 6.25121023041067 0.217303861283648 1.03771977840687 0.10578
0.1058 5.06131756898353 2.68891696776349 6.25243067688799 0.222556059065198 1.05194731611375 0.10579
0.10581 4.94047681410703 2.58491447118217 6.39502426098478 0.213979328690215 1.06657307989162 0.1058
0.10582 5.239539735748 3.01336376627594 6.30310614046801 0.228240353247932 1.07684362137077 0.10581
0.10583 5.21228010285439 2.95023345790338 6.26029991459709 0.225828752123133 1.07688280717581 0.10582
0.10584 5.3149596599611 3.47109983216917 6.24563442348213 0.248858049202147 1.0693746162276 0.10583
0.10585 5.22948169872401 3.46280700919857 6.18744936916266 0.243128437887635 1.0472112456872 0.10584
0.10586 5.18357499236627 3.03196958595512 6.00672789897963 0.229820297306099 1.03709995276982 0.10585
0.10587 5.0008817923279 2.9274771450937 6.10639206212155 0.230606950826658 1.03243708831044 0.10586
0.10588 5.00315974326566 2.89814806193549 6.14331288129663 0.217657785158125 1.03519930072123 0.10587
0.10589 5.16591199413874 2.9108351218237 6.24314523420503 0.227402182430186 1.03137066834837 0.10588
0.1059 5.29351740922152 2.81580109313069 6.30445625411837 0.22644210261295 1.08027668108266 0.10589
0.10591 5.01638443972774 2.86958469116315 6.62388676504452 0.219620222934577 1.09411095833389 0.1059
0.10592 5.15885469445761 2.84266003852443 6.32294925476128 0.221955637331054 1.06969295777668 0.10591
0.10593 4.59777510349097 2.88564340687471 6.40378837385975 0.204617357373459 1.07674822346527 0.10592
0.10594 4.7773481229127 3.07756790032312 6.32206851268026 0.221084635882696 1.03775091691771 0.10593
0.10595 5.06661995467083 2.96012712062287 6.32044990341095 0.2306814228358 1.06230604559103 0.10594
0.10596 5.19895538434766 2.99269369427029 6.27757079063732 0.2223850743114 1.0708877945513 0.10595
0.10597 4.69287517933597 2.83572108590028 6.19943746084929 0.209660771915643 1.03021237809821 0.10596
0.10598 5.06573642567886 3.34531706469367 6.15441503106224 0.234661565222368 1.04363442298244 0.10597
0.10599 5.16351916263604 3.24471976343114 6.25246209222895 0.239419557801894 1.05052370456038 0.10598
0.106 5.05602160935793 3.1146153915262 6.33428473790611 0.227481660678277 1.05140908357262 0.10599
0.10601 5.12879271495311 2.841086809153 6.28561825038449 0.2185740097013 1.05088315276702 0.106
0.10602 4.77931601305227 2.63786913989568 6.16100501857722 0.208618163568039 1.04623229172826 0.10601
0.10603 5.01866309136112 2.59470405885363 6.47235386770314 0.215659209900025 1.08169190069728 0.10602
0.10604 5.19519373433334 3.25344616702116 6.47066560606361 0.240289474916202 1.09148858276346 0.10603
0.10605 5.05364390216938 2.93008239441338 6.28162615908506 0.222544267470812 1.06409075342193 0.10604
0.10606 5.23312390716484 3.22234725622764 6.24616700013282 0.231666380943709 1.07745260986122 0.10605
0.10607 5.1846493419407 2.67981103910907 6.26579606662425 0.225492812608975 1.06091389095461 0.10606
0.10608 5.13114373685201 2.85037466548663 6.31562507152015 0.226453316560901 1.04819326480783 0.10607
0.10609 5.5702914741364 3.05711056537152 6.24501708547812 0.239773574042612 1.0641715653378 0.10608
0.1061 5.28470655077789 3.30572806544853 6.27995303235043 0.240062360985483 1.05461090228359 0.10609
0.10611 5.35212697166181 3.10236597343144 6.20926552193779 0.242158629130804 1.06443859377834 0.1061
0.10612 5.13995348191095 2.8712891253748 6.09089766739164 0.225732140448967 1.05873490369539 0.10611
0.10613 5.17553199926607 2.97817559714902 6.20338920384619 0.223338534870056 1.03997228452785 0.10612
0.10614 5.36803121380552 3.17750628625245 6.25943174648803 0.243755409677539 1.04721241099007 0.10613
0.10615 5.06541111112579 3.28791439148919 6.24908801294835 0.234133231002702 1.06603491348478 0.10614
0.10616 5.05693074182514 2.97601870542114 6.30801274958224 0.223169777941932 1.07018039189594 0.10615
0.10617 4.88392905762536 3.09655413111747 6.34001299587413 0.22216139917937 1.05119585195571 0.10616
0.10618 5.05768843557447 2.96834552144627 6.40083068356804 0.226177563562129 1.06719152295762 0.10617
0.10619 5.02367869796166 2.95959861907197 6.47477352185165 0.225983537865861 1.07771000262483 0.10618
0.1062 5.24009654993809 2.92916739957861 6.65924448238816 0.228040375085812 1.10573354339311 0.10619
0.10621 5.25853955132231 3.22541648234857 6.39139221276653 0.24194035864099 1.05803213201386 0.1062
0.10622 4.84929833692666 3.27725047631382 6.08333328440794 0.228788417591932 1.04369828800153 0.10621
0.10623 4.9541886262998 2.86861322188151 6.29371762203237 0.224870298034724 1.04354382977046 0.10622
0.10624 5.11475375626715 2.98443216931905 6.17176183076454 0.222257187216742 1.04374500405393 0.10623
0.10625 5.08113119515839 3.06891002065483 6.31220666964621 0.225885723107216 1.06168141240768 0.10624
0.10626 5.28208106563597 2.86787621796626 6.35444334439667 0.226525887097467 1.08939116763557 0.10625
0.10627 5.43681924580812 3.24633742592926 6.39295019676612 0.247333936394148 1.08691829844341 0.10626
0.10628 5.03664429477519 2.89080795867467 6.37991688798622 0.223596961702637 1.05650200214739 0.10627
0.10629 4.86532992943129 2.85013212179047 6.21753082577433 0.219631823591588 1.04167253460481 0.10628
0.1063 4.8480113640315 2.77667419051664 6.27853595271806 0.209312888044387 1.06260987946778 0.10629
0.10631 4.91883560616924 2.81152671316093 6.36325665503762 0.220109815259254 1.06682549891618 0.1063
0.10632 5.32722301082228 3.22009662658123 6.15808550084078 0.241911034278954 1.04757755469407 0.10631
0.10633 5.22089765987474 3.37461919852437 6.32274048482671 0.243343626339212 1.07367240933268 0.10632
0.10634 4.99335318960053 3.03581417225537 6.46938299098924 0.225714350538534 1.09086330112639 0.10633
0.10635 5.19266115992219 2.78122544258858 6.58915047239956 0.221262828359645 1.09495958285887 0.10634
0.10636 5.17159184954527 3.16110836507922 6.38302475099757 0.235012496188007 1.04686109311158 0.10635
0.10637 5.22524723879719 3.18859953290708 6.23355928883005 0.247474352406004 1.03814272489751 0.10636
0.10638 5.25191374324436 2.66166882131522 6.46264981718108 0.217034329472973 1.08540762208081 0.10637
0.10639 5.1142564508308 3.0566033661204 6.50636616396536 0.219105867463806 1.07825968413676 0.10638
0.1064 5.16253060467141 3.30127821475692 6.35203301490843 0.240050105634638 1.05942650207482 0.10639
0.10641 5.31825526915279 3.07454621364835 6.16541623478592 0.228425738841516 1.06228098182282 0.1064
0.10642 5.53110564287455 3.23037507452931 6.27500898619673 0.24745400371186 1.0553886475424 0.10641
0.10643 5.2292311726036 3.14834562252746 6.06151220291226 0.242750231386284 1.01632382359541 0.10642
0.10644 5.15742208649284 3.31145454079411 6.23960172413539 0.239712317830121 1.05253305455775 0.10643
0.10645 4.97197653361442 2.73432580863075 6.61259946708168 0.216440002138544 1.11596159349994 0.10644
0.10646 4.7797022801097 2.80256431195114 6.56970536997489 0.216259835214966 1.08492979237378 0.10645
0.10647 4.97913809063255 2.82045640888343 6.5670651702294 0.220407091235837 1.0887960902444 0.10646
0.10648 4.99049269022796 2.83343988777853 6.66082216070067 0.218833877627181 1.11307877750656 0.10647
0.10649 4.85728065102767 2.99108689830371 6.69941305428638 0.226717877638926 1.09260847905592 0.10648
0.1065 4.92202356779914 3.12476871196168 6.63345929316916 0.224952818308702 1.10079535432751 0.10649
0.10651 4.86452222613451 3.26503094878554 6.31304484080164 0.228406904006717 1.05713888136206 0.1065
0.10652 5.24577628715766 3.45683063214783 6.19011351621761 0.24967089388038 1.03329230426597 0.10651
0.10653 5.18398252776072 2.96149465225733 5.91245536622458 0.230127892591292 1.01240212389124 0.10652
0.10654 5.32796939247071 3.07764202033659 6.1861252943782 0.237999121170273 1.071796908115 0.10653
0.10655 5.5422925124095 2.80684714837263 6.24458134149593 0.237336701063157 1.06260118115735 0.10654
0.10656 5.23219199193123 3.08742848074385 6.26711565220641 0.224403662578297 1.06219139965138 0.10655
0.10657 5.20959132089999 2.93296042694252 6.37628063241136 0.231837242735833 1.0752886687882 0.10656
0.10658 4.99855828177651 3.16276053742429 6.50060516749033 0.225390485362829 1.07953377682725 0.10657
0.10659 5.09584017720417 3.24695418558012 6.46957888362985 0.239123918571794 1.07275676951679 0.10658
0.1066 5.33741475626512 2.7993207181268 6.44525286443069 0.22815910929373 1.09682907055813 0.10659
0.10661 5.21431092869733 3.36067521239198 6.56197193495464 0.240198011466162 1.11390479190239 0.1066
0.10662 5.38099778312088 3.27304712531878 6.65653264092078 0.246518753737479 1.12002077901136 0.10661
0.10663 5.24814514127315 2.92943124140462 6.5929239972501 0.228791222126712 1.10100589032559 0.10662
0.10664 5.23002530503537 2.65692002506331 6.41059818032746 0.220642809811852 1.0780749196312 0.10663
0.10665 5.21648137678421 2.99992798684731 6.27098776110518 0.231275984387116 1.07164708203669 0.10664
0.10666 5.12290835104687 3.1459813740998 6.14766510415689 0.227858539428988 1.04520753605678 0.10665
0.10667 5.53492750852741 3.21856815851055 5.97228805316943 0.253479483087599 1.02197375961429 0.10666
0.10668 5.21607167477493 3.12355381376194 6.06721807238957 0.228551817262491 1.04325913699083 0.10667
0.10669 5.38512887128408 3.27135633215348 6.30332020060203 0.239335057004287 1.08360073883081 0.10668
0.1067 5.16978526673029 3.22506098371735 6.32899518638628 0.234131438538425 1.05770181999867 0.10669
0.10671 5.28821329235034 3.16717006329076 6.49597604550718 0.233202117764608 1.10368555818249 0.1067
0.10672 5.00629701740042 2.79952303531015 6.43804641427428 0.22281740309646 1.06441939863481 0.10671
0.10673 5.01918174783694 2.84097902493798 6.44297029137337 0.22566740154102 1.07210156777655 0.10672
0.10674 5.04754355531544 3.19859491624329 6.47997238044119 0.230956858678625 1.08735873692296 0.10673
0.10675 4.9339747091851 2.98857384796768 6.50138126337541 0.225459277336263 1.06321672423651 0.10674
0.10676 5.01211459632061 3.0659209164275 6.49219251292732 0.229197882502955 1.08939670500087 0.10675
0.10677 4.91535439293432 2.88061818330281 6.49813208108398 0.21477182800508 1.07205970659318 0.10676
0.10678 5.04422687352678 3.15702401841274 6.30574512806127 0.23421203561815 1.05858687977496 0.10677
0.10679 5.21437543213915 3.20296113936137 6.32694585337146 0.229324137888587 1.10715414991325 0.10678
0.1068 5.13399739306669 3.09334617942361 6.2906613714385 0.226643186678073 1.07036219197721 0.10679
0.10681 5.3134913687196 3.0638231640922 6.29542136822182 0.234661140831377 1.05308976217343 0.1068
0.10682 5.00643186454678 2.69245080109466 6.18202675504043 0.21603940815935 1.05202266038436 0.10681
0.10683 5.04463111914146 2.93478599535279 6.3176662391329 0.225489194362363 1.06824398883498 0.10682
0.10684 5.48437286626026 3.32434113090528 6.45815349228057 0.24905003220011 1.12301087600686 0.10683
0.10685 5.43590188664533 3.25060664511317 6.39278711169151 0.24088622809021 1.08027886008403 0.10684
0.10686 5.49767173600958 3.16040420680634 6.24734337217948 0.249135366472083 1.08245742854792 0.10685
0.10687 5.34256066836538 2.89660155540701 6.15486458360148 0.222254354141802 1.07087114873583 0.10686
0.10688 5.48378615033107 2.84128180236443 6.30913299467981 0.235277240153533 1.04836650019638 0.10687
0.10689 5.32692874621873 2.9877143233059 6.28434841897022 0.241745855688824 1.04574570079224 0.10688
0.1069 5.35674707973538 3.15504200629073 6.45844397575256 0.231962938045365 1.11048921808533 0.10689
0.10691 5.16982613585705 3.09244026989327 6.53148739343333 0.235241212279076 1.09824259561226 0.1069
0.10692 5.19945244676455 3.06619010391025 6.45937783310406 0.232313665092298 1.08882627429928 0.10691
0.10693 5.22248456534649 3.03342275590112 6.40762625962792 0.221310486974094 1.09922165107767 0.10692
0.10694 5.02775918872847 3.04944094348674 6.3662919122457 0.228563002817133 1.03482998634788 0.10693
0.10695 5.20837625997346 2.99009957173856 6.30010555331752 0.229706798875698 1.07799335979546 0.10694
0.10696 5.14874376660345 2.85291338004884 6.41172991955723 0.222830318688193 1.06959874283305 0.10695
0.10697 5.14706102315227 3.23087197713513 6.29348310653027 0.236036381356586 1.07889642862261 0.10696
0.10698 5.40198548693898 3.13147361198625 6.18844031373516 0.239175580401606 1.06945321149429 0.10697
0.10699 5.2430025626135 3.05562267192002 6.33233661660054 0.228984147400558 1.06565230725889 0.10698
0.107 5.30809559587878 2.9967427368157 6.36480688186474 0.23193323118296 1.05514590819297 0.10699
0.10701 4.89858845470482 3.15627499320122 6.38194651730169 0.222934231235986 1.07148728849302 0.107
0.10702 5.1213313338019 2.99230962893944 6.59634490661274 0.224055085959972 1.09356392859164 0.10701
0.10703 4.81470880168682 2.71114656746386 6.54755287804514 0.210512860502055 1.09005009490758 0.10702
0.10704 4.99146362420546 2.88851146282127 6.67608919370524 0.222690327778044 1.10845553770433 0.10703
0.10705 5.08277300753905 3.20359632078602 6.44846562966527 0.233077447589407 1.06903393296065 0.10704
0.10706 5.28023434785299 3.00184414425136 6.19509297575992 0.232365864608986 1.08137159280148 0.10705
0.10707 5.44183477026267 3.24000900643821 6.33489346893223 0.240970514170549 1.08146697589285 0.10706
0.10708 5.17781474703059 3.11909163958892 6.34182372905538 0.235560259043741 1.06624179256563 0.10707
0.10709 5.13580328595493 2.73277791134236 6.47444802822673 0.217819767820093 1.08171173156567 0.10708
0.1071 5.21042378845058 2.8826073184836 6.44251029692843 0.233850774097198 1.07785010073876 0.10709
0.10711 5.02788048150226 3.14442096405719 6.38768349163442 0.224944260897415 1.07527351346118 0.1071
0.10712 5.16681777820318 3.12672024653685 6.3218323443881 0.246232629452527 1.03265576546607 0.10711
0.10713 5.40100700120326 3.30172745871689 6.17789385082747 0.250378429626381 1.03924059932666 0.10712
0.10714 5.48408000139699 3.31129916707254 6.20191243742833 0.250229428907349 1.07986689058489 0.10713
0.10715 5.62700838181329 3.56982835021741 6.38574205609099 0.267332315779318 1.08426377089104 0.10714
0.10716 5.16353492559779 3.28463683113023 6.31405604139551 0.235443273226246 1.05898779176362 0.10715
0.10717 5.23860993802763 2.96017287859169 6.3104631813015 0.231583781067369 1.06102636071886 0.10716
0.10718 4.98185092552789 3.14785443541681 6.26784663477163 0.227598263239499 1.0576833841975 0.10717
0.10719 5.24021390031093 3.13560667048942 6.32645107917218 0.241374129060682 1.05303961068061 0.10718
0.1072 5.19160829725154 3.24296907420895 6.44309790344638 0.230801650276438 1.09479725702613 0.10719
0.10721 5.33158856789858 3.25600968173988 6.64630880370412 0.239509962996048 1.12575457609601 0.1072
0.10722 5.21659297174368 3.17869453368626 6.59402584428214 0.236597055206288 1.10240609015091 0.10721
0.10723 5.32371346021213 3.20079079851278 6.4111278620149 0.241054368575605 1.08637390537296 0.10722
0.10724 5.18866100522397 3.16100580530533 6.38886619402845 0.236240737679158 1.07362574194386 0.10723
0.10725 4.89739401052207 2.63645915032344 6.4051158864869 0.210918579092063 1.07414362994587 0.10724
0.10726 4.6861576988212 2.6383948796852 6.48655239735134 0.203598280590364 1.07882605685991 0.10725
0.10727 4.79393245735369 2.98770764124367 6.54862539409131 0.218171659043575 1.06921545929351 0.10726
0.10728 4.82807851733767 3.02802298258896 6.27757238630449 0.224505898413993 1.02481853541084 0.10727
0.10729 4.90802129552308 3.05465679098395 6.26250444929411 0.22123103244363 1.06210185731096 0.10728
0.1073 5.04964068667 2.98713229326333 6.25262916238905 0.229841777185192 1.04414055705734 0.10729
0.10731 5.23681937203313 3.03397839003755 6.31390755111986 0.232731736398162 1.0575970964625 0.1073
0.10732 5.08548841568077 3.14290210593887 6.33141776967491 0.228255106339007 1.05730225287884 0.10731
0.10733 4.93310153380275 2.67369637623484 6.23945496425473 0.212159969381091 1.04339834966494 0.10732
0.10734 4.94333413655959 2.85274590038245 6.4033691666555 0.218340189091147 1.05752198974739 0.10733
0.10735 5.13928691091259 2.92708978038535 6.37849280234254 0.230681629505944 1.05389841468031 0.10734
0.10736 5.3168595953084 3.11081105285627 6.27005849865239 0.23254652184496 1.0755511224651 0.10735
0.10737 5.15076987253426 3.12906000293434 6.41164022890501 0.230236615330933 1.06353631422244 0.10736
0.10738 5.32163998211743 3.0441990482156 6.22593988133081 0.232692007589277 1.07472521221791 0.10737
0.10739 5.32989416223745 2.94832762467218 6.25639601049734 0.237603156212044 1.03341445343893 0.10738
0.1074 5.23761286018465 3.04599571143976 6.14187804654774 0.22684168196364 1.06886928657094 0.10739
0.10741 5.35140649444877 3.04889423882661 6.02052835415234 0.237509009336133 1.05611035802052 0.1074
0.10742 5.00766022819591 2.65948946463341 6.19688237702653 0.220358461978144 1.03791573736193 0.10741
0.10743 5.21577829867445 2.61236679877914 6.40615135323171 0.217323908009477 1.06242966588803 0.10742
0.10744 5.39655786412369 2.90673757519794 6.42768782591374 0.241628025565929 1.07658982427299 0.10743
0.10745 5.30387623083566 2.80961804292195 6.38951258663088 0.226524076377015 1.08207593556445 0.10744
0.10746 5.26033162955436 2.7929998269679 6.26713068126752 0.228201394526926 1.07521697551286 0.10745
0.10747 5.15100887581821 3.02155797879721 6.09988688053403 0.224343839632178 1.02681330118962 0.10746
0.10748 5.35977358181619 3.04939585424739 6.18286324533798 0.237381037028223 1.05231647904451 0.10747
0.10749 5.09139909857451 3.00603767726351 6.24827947503131 0.220551517733337 1.07828252056784 0.10748
0.1075 5.07877862885182 2.98593702758335 6.26643788333123 0.229935504844533 1.03997221774254 0.10749
0.10751 4.91093273387607 2.9138594220776 6.18173010344705 0.223229637055594 1.03643765511246 0.1075
0.10752 4.9967493899667 3.03908560261398 6.28903876684735 0.227301501081453 1.03887830974184 0.10751
0.10753 5.08774568183073 3.37654994624781 6.09364923407847 0.235727083009515 1.05203619105427 0.10752
0.10754 4.99809224726091 3.20820589098883 6.28916404658581 0.236796214614236 1.04076488878613 0.10753
0.10755 5.01997066187205 2.81940295010606 6.36351811362489 0.214781073887003 1.06682010011469 0.10754
0.10756 4.84132730722738 2.52307638174714 6.32705557443621 0.210365479291669 1.04976957529337 0.10755
0.10757 4.83829591551018 2.87831853322268 6.26885848187535 0.217592180459168 1.04009456582048 0.10756
0.10758 4.84240517871005 2.88199585684775 6.28327273964111 0.216594389838219 1.05424382534515 0.10757
0.10759 5.03067193394791 3.18028327669343 6.36143561490231 0.232660933305708 1.06623090566209 0.10758
0.1076 5.15131108911405 3.157770132691 6.3947978000952 0.236335789250413 1.07827567995211 0.10759
0.10761 5.25674980354643 2.95712131549922 6.31937518328223 0.234357065270854 1.03926868634245 0.1076
0.10762 5.01297949640592 2.98198121611257 6.20032321817229 0.217965024259284 1.05446859446773 0.10761
0.10763 5.27145636308646 2.88478945606274 6.34735913314196 0.227446581868757 1.09016026023026 0.10762
0.10764 5.28955038523554 2.71441391710769 6.26645276970661 0.222532374780053 1.03148112823155 0.10763
0.10765 5.32430928212393 2.79025019541228 6.22404685771705 0.235485415129785 1.04137956549282 0.10764
0.10766 5.03660762206092 2.70964796736098 6.17859300233812 0.214147914546093 1.05735650912798 0.10765
0.10767 5.3454429887017 2.61811837652653 6.24892898410001 0.219567016829341 1.08299302080244 0.10766
0.10768 5.29338468942579 2.83862952514505 6.63080918240598 0.227936577650499 1.07991088797494 0.10767
0.10769 5.49599022377058 3.13921991412858 6.3085797013103 0.245595734330368 1.07551504944713 0.10768
0.1077 5.68724482926452 3.15889218458002 6.09614761712178 0.248149992117695 1.07036125089134 0.10769
0.10771 5.86407686959135 2.94734214667498 6.17769313679216 0.247262315314171 1.0793516124579 0.1077
0.10772 5.62871183835647 2.67810896085852 6.05947403677838 0.237769302929002 1.03534342371781 0.10771
0.10773 5.43453802034338 2.76753615137526 6.15017367590015 0.229540666885175 1.06140170639318 0.10772
0.10774 5.49841448173199 3.02888397872753 5.95706693771964 0.244862450032989 1.02113318121616 0.10773
0.10775 5.74247351832151 2.85442441248819 6.03153829589084 0.249261510841716 1.05303402708177 0.10774
0.10776 5.38183964832022 2.79946951903924 6.16033578119431 0.227164220344244 1.06685433263041 0.10775
0.10777 5.05218177575759 2.58556287925641 6.19155096213147 0.211963409214565 1.03845742213763 0.10776
0.10778 4.83102847523291 2.8228893029406 6.39642917079411 0.222363054760946 1.04239002624822 0.10777
0.10779 4.76737534394109 2.64241324085231 6.55181266754852 0.207168759700432 1.077099729807 0.10778
0.1078 4.83573975959051 2.98884176379081 6.56087967944952 0.218787770740138 1.08233942300448 0.10779
0.10781 5.01964130238444 2.83269403503887 6.47074568615165 0.214974074716262 1.0596284055446 0.1078
0.10782 5.19016325842827 2.95953916138718 6.44744018799613 0.226851626801504 1.10237858756937 0.10781
0.10783 5.09547548086825 2.87615293724092 6.27836450265701 0.2272140704758 1.08014323119851 0.10782
0.10784 5.07301102949268 2.90953011137194 6.27853254998858 0.223884475179594 1.05475814773185 0.10783
0.10785 5.08818564042691 2.85021191758358 6.25350191492621 0.21809480348203 1.05123683417358 0.10784
0.10786 4.99261593796914 3.15037648704282 6.13146721876553 0.230595481542292 1.02846983915028 0.10785
0.10787 5.22594305296295 3.15310551025128 6.05651698606879 0.233299712213314 1.05330037666125 0.10786
0.10788 5.29849537312491 3.31214121473165 6.31074568144081 0.249536252938805 1.06154767791313 0.10787
0.10789 5.14976595429535 3.01429084247731 6.17373501307357 0.234087153857726 1.03605868442469 0.10788
0.1079 5.11107117571935 3.05094834519138 6.11475494355054 0.226204097448726 1.05695005401978 0.10789
0.10791 5.14902660582627 3.12183615076276 6.25218910530926 0.232460097814481 1.04666578536009 0.1079
0.10792 5.3371151955032 3.15263245576856 6.0414141395667 0.244543829360694 1.04886356371956 0.10791
0.10793 5.30180810520304 3.03104223957747 6.22575484598096 0.232846144388293 1.053307534663 0.10792
0.10794 5.21450162724083 3.22283556349156 6.19452339162187 0.238120305948535 1.05513677668749 0.10793
0.10795 5.0422607407325 3.31586489335873 6.24769344234112 0.233256824801006 1.08474899761128 0.10794
0.10796 5.20119724471141 3.26216343955187 6.43399541826768 0.237605280550276 1.08504115302954 0.10795
0.10797 5.4485867333684 3.31198148125101 6.56528066319224 0.242806779454055 1.08211780260123 0.10796
0.10798 4.83053826178303 3.25533955624855 6.3898158094411 0.224492537346418 1.06962636306588 0.10797
0.10799 4.99789019686177 2.78389630996585 6.26961617094759 0.223172451782036 1.06667118302018 0.10798
0.108 5.02084232794678 2.80855518196365 6.28986830810325 0.227062342798808 1.03445962233763 0.10799
0.10801 5.27572870146679 3.26255511559743 6.18733624902047 0.239945004910068 1.06240894753809 0.108
0.10802 4.89556503536313 3.33861143285256 6.31717323330758 0.2365985751049 1.07921361593613 0.10801
0.10803 5.13612034600088 3.08683624049203 6.53557304374184 0.221357606009548 1.10553204335536 0.10802
0.10804 5.36808660117024 3.30180127481328 6.36509085404788 0.242727194758727 1.08408822974939 0.10803
0.10805 5.36942298873766 3.37481455292736 6.20434306951515 0.244756468440799 1.08834366165682 0.10804
0.10806 5.34701894518766 3.39062594466414 6.11321615833922 0.247892279757082 1.04823390521932 0.10805
0.10807 5.21464996125742 3.30856790382336 6.15764973219805 0.242604603326055 1.0624504228179 0.10806
0.10808 5.09346977297131 2.63012624051844 6.09244511939764 0.210056196856876 1.05080073970941 0.10807
0.10809 5.06943398220259 2.82062246961004 6.28435009441823 0.223464736375915 1.0453040333089 0.10808
0.1081 4.94577944872204 2.87533782283317 6.23161905732963 0.219937136530378 1.04942183774447 0.10809
0.10811 5.11696213838095 2.66449059834265 6.36393291177778 0.215771679146717 1.09121450669254 0.1081
0.10812 5.18825558031353 2.98725674666433 6.20333264256199 0.23358842415246 1.0534907088605 0.10811
0.10813 5.02176499145899 3.00143402141496 6.22692181235633 0.220838998609111 1.05585756025744 0.10812
0.10814 5.22249920491701 2.69893324939566 6.2310848306877 0.223795107251996 1.05748255927271 0.10813
0.10815 5.1412059725703 2.8388943004693 6.43189515785455 0.224978787995472 1.07994752298169 0.10814
0.10816 5.3386834232088 2.68858221593044 6.27851939923948 0.221689633846145 1.05551395609125 0.10815
0.10817 5.48483740488098 3.00262103452876 6.24877086404171 0.244000526581752 1.07946613144672 0.10816
0.10818 5.2914362053571 2.79325799538176 6.27839091292239 0.223819415351011 1.05615747965992 0.10817
0.10819 5.56901942582494 2.83632896844331 6.26638298154775 0.239508118103805 1.06228409309449 0.10818
0.1082 5.57275166550934 3.3783535104904 6.20131096335922 0.255459264549458 1.05791583867138 0.10819
0.10821 5.67346992174352 3.13078970523608 6.30341065979647 0.240055383719938 1.1010525957878 0.1082
0.10822 5.23166756608314 3.26894532586603 6.44925053728237 0.233537548401071 1.12305043742888 0.10821
0.10823 5.02128604321734 2.6979011439805 6.38911356617197 0.218682113100756 1.06216165579484 0.10822
0.10824 5.30757084589957 2.72219094257097 6.15201469993914 0.227702008547018 1.04688228989663 0.10823
0.10825 5.34099572882381 3.18890494667649 6.20796611187609 0.235542513963749 1.06200739034974 0.10824
0.10826 5.30314894910711 3.05257998844195 6.24900686723237 0.235822228517289 1.05603534451157 0.10825
0.10827 5.37065723979695 3.2114663284778 6.02359407362964 0.234847490645172 1.05162071405253 0.10826
0.10828 5.2173580763154 2.86499630900354 6.31866699349291 0.224295991620792 1.06350696388391 0.10827
0.10829 4.98180595979733 2.88893099288116 6.25172975157671 0.215552177286516 1.02613713335693 0.10828
0.1083 5.48985292725557 3.10192990674687 6.10074794221438 0.241117467471369 1.06397315230364 0.10829
0.10831 5.18625551976623 3.29951549966254 6.17359086555394 0.238804944832852 1.0533132775876 0.1083
0.10832 5.06620896471994 3.09040971746759 6.30057236610925 0.226229782588262 1.06814774410754 0.10831
0.10833 5.09633517101147 3.10702077583699 6.20634895554512 0.234504185482065 1.04263346078533 0.10832
0.10834 5.22924621748493 2.78754284998743 6.24986391762207 0.22328080087091 1.0592566880395 0.10833
0.10835 5.36192351782495 3.01060194667801 6.24289386376964 0.237007537954764 1.06195966739101 0.10834
0.10836 5.27345264554336 2.9256929682613 6.30847202177844 0.22905836551367 1.07219957034578 0.10835
0.10837 5.36733644052727 3.11144959372035 6.20468841423932 0.237999469945568 1.04896444309515 0.10836
0.10838 4.91463206637883 2.90017568065277 6.22042157196617 0.219322115592784 1.05048963124073 0.10837
0.10839 4.81450030214337 3.01776184942834 6.44428136701397 0.218098322904129 1.07556875012057 0.10838
0.1084 5.10668790024882 2.84403282575062 6.38516696129887 0.223518439233241 1.08122466220982 0.10839
0.10841 5.3910103977951 2.85818870355346 6.52149804088942 0.225859204039068 1.08425625897856 0.1084
0.10842 5.39223781108305 2.96883459899332 6.26093102453749 0.224971009020766 1.06993538240683 0.10841
0.10843 5.32502659072624 2.55898110160264 6.21584866415861 0.220226674102484 1.07168870681335 0.10842
0.10844 5.52482307474816 2.69719727213882 6.19423501864951 0.227290206797271 1.04810841421152 0.10843
0.10845 5.54144424283407 3.27578877762388 6.05569533492467 0.250963545478992 1.06893620492436 0.10844
0.10846 5.74640114650051 3.05522410929314 6.15931882191708 0.247241469178031 1.06952873713809 0.10845
0.10847 5.50336349044323 3.23737382778524 6.16552688843962 0.253241387678626 1.06407887925921 0.10846
0.10848 5.40696840700632 3.19871908677023 6.01398383186728 0.242025107683607 1.02730594770381 0.10847
0.10849 5.60907443941006 3.2655297632254 6.08920567691091 0.248194396844293 1.07448439909523 0.10848
0.1085 5.58248960135152 3.19267914103199 6.20233757951463 0.249581492659229 1.07594639952247 0.10849
0.10851 5.27719638626555 3.04047944315916 6.6681093317851 0.229845173488455 1.11887729200418 0.1085
0.10852 5.04909141883074 2.85926812368444 6.5457640736847 0.216344025554029 1.07521563964978 0.10851
0.10853 5.14758283032771 2.8303136685609 6.30528159037901 0.222328303745245 1.0675441113651 0.10852
0.10854 5.24555287203063 3.2784270337946 6.23603799568005 0.240453837815076 1.0642447945541 0.10853
0.10855 5.17555544375787 3.20328239498889 6.45127583042111 0.233242646277842 1.07704852289387 0.10854
0.10856 5.34197738793925 3.07202136993173 6.22823703557634 0.228910847372451 1.07407408971927 0.10855
0.10857 5.17497651926683 3.0408509376077 6.27999918488931 0.225559988691748 1.06866459571228 0.10856
0.10858 4.80338037611389 2.87591286742823 6.30394873860014 0.206682377126218 1.05174071725117 0.10857
0.10859 5.2395559764413 3.26170287868767 6.05641914938453 0.240507719500804 1.03087533364069 0.10858
0.1086 5.06799117000757 3.07051807555817 6.2039297231218 0.23007253628053 1.05690743556118 0.10859
0.10861 5.32845520946261 3.02222432409725 6.27144478055643 0.234027113480217 1.06923763065207 0.1086
0.10862 5.29618110282979 2.66759650236408 6.34188599522744 0.21646991410673 1.06313295096427 0.10861
0.10863 5.33770899630947 2.97932532062947 6.38317501111149 0.224453171838939 1.10878662473882 0.10862
0.10864 5.39076826157441 3.07924732183045 6.44034593151304 0.251296675191345 1.08024429086423 0.10863
0.10865 5.24694883554846 3.16440677678252 6.55729682250359 0.235644001909421 1.09985876285862 0.10864
0.10866 5.07305573566748 3.11016190942337 6.56333858931188 0.22838665025429 1.10368109865448 0.10865
0.10867 4.91269338404651 2.49123670682054 6.49336600424178 0.209614726416592 1.05857899034159 0.10866
0.10868 5.06321217305632 2.81893182975527 6.44544141881831 0.217403517710048 1.09075333997111 0.10867
0.10869 5.45858611646735 2.97138499762686 6.16644214689205 0.233179824378971 1.07457935533866 0.10868
0.1087 5.41141960289346 2.91085884868208 6.00566244240298 0.232370989108522 1.0605377755751 0.10869
0.10871 5.2241445754716 3.36148405712754 6.07829522502599 0.241800520589406 1.04047568616559 0.1087
0.10872 4.93629930784469 3.16057094808525 6.29879324513091 0.218742707849287 1.0509724074082 0.10871
0.10873 5.16629358171827 3.31080600832406 6.2405139436506 0.239004336675276 1.06221120191383 0.10872
0.10874 5.14926247380081 3.51687017442517 6.43757858836845 0.240515019590224 1.0616931597041 0.10873
0.10875 5.24509270736723 3.57032708591499 6.25993612390675 0.248142062515617 1.07501875787715 0.10874
0.10876 5.2385511635303 3.62275837375845 6.29838214717655 0.24675598199641 1.07498628758659 0.10875
0.10877 5.30246778827093 3.27585491935576 6.43393187932628 0.244631454327213 1.09106741014214 0.10876
0.10878 5.27057818622099 3.10814950579369 6.62823750260827 0.229638875703533 1.10155872878073 0.10877
0.10879 5.30534583614057 3.22595615145422 6.57543080927328 0.241999332532465 1.09402691808518 0.10878
0.1088 5.26012714916737 2.84702085937602 6.45902167070631 0.227597513930856 1.07814196842296 0.10879
0.10881 5.04302342187 2.94434680714126 6.15831410363276 0.215420885403976 1.0501387439616 0.1088
0.10882 5.10708248035128 2.96666794998112 6.15757753936227 0.22424928437857 1.03272828847522 0.10881
0.10883 5.36014235380649 3.04830295736983 6.16126593977536 0.234212559130082 1.04004731780838 0.10882
0.10884 5.33544954913972 2.91659643856102 6.32474252552155 0.230341558058639 1.07637487540209 0.10883
0.10885 5.5193593738447 2.96940644573135 6.46782466526803 0.235328169913258 1.09054632125212 0.10884
0.10886 5.40693463016467 2.86973044773502 6.37800941519149 0.228860285626798 1.09061759298298 0.10885
0.10887 5.3966892031767 3.0363060900384 6.21783597934762 0.238846326005816 1.07201107626393 0.10886
0.10888 5.26970295453559 3.38929580241515 6.4587273674826 0.246024935200538 1.09579061456175 0.10887
0.10889 4.96349964037901 3.33449685163816 6.62400646695051 0.230638875761233 1.08424674617058 0.10888
0.1089 4.93925932967396 3.07741278704662 6.49631379221601 0.223076349825748 1.07996739784909 0.10889
0.10891 4.80741083770363 2.59655940743666 6.61345954670622 0.210309016973253 1.08458860014561 0.1089
0.10892 4.98446969067936 2.82346455777424 6.43386206038383 0.224268318744062 1.08152301818719 0.10891
0.10893 5.42153629615098 2.9492682987006 6.17199359527623 0.237115088621996 1.05993679448993 0.10892
0.10894 5.44066804211395 3.26182976035782 6.04018542377122 0.23945265246824 1.06396270600312 0.10893
0.10895 5.43889915557824 3.29713472174925 6.13593599963152 0.242856790862304 1.05865548346911 0.10894
0.10896 5.28223788127201 3.01894891629709 6.09046865918152 0.234500409720667 1.02356739014306 0.10895
0.10897 4.98715611378605 3.22829375940697 6.08181802261511 0.229901209543657 1.04377781975889 0.10896
0.10898 5.5344802014111 3.34452763947697 6.25300013375492 0.244001998375827 1.10410167209909 0.10897
0.10899 5.59325648240391 3.2192087718361 6.24248809026306 0.252927132835818 1.08244869847105 0.10898
0.109 5.8188309194734 3.21809108790815 6.28999173017513 0.25340443645077 1.09529874104074 0.10899
0.10901 5.6212557862831 3.08205629730552 6.33889459716871 0.242635564099468 1.08154960808527 0.109
0.10902 5.38140432198078 2.73922121703899 6.57157103390586 0.225118028986559 1.10572796214029 0.10901
0.10903 5.59405667509136 2.93741840639235 6.32207273066217 0.230730884763028 1.13244264945959 0.10902
0.10904 5.81437060328627 2.69843399171591 6.37835501796077 0.241705590831647 1.10877743919724 0.10903
0.10905 5.46327377387296 2.94750793615544 6.26479963646706 0.231047127579959 1.06797311946566 0.10904
0.10906 5.24510661357301 2.98793801882101 6.16416253842389 0.230305425293131 1.05876212810666 0.10905
0.10907 5.33780608328193 3.02207874643182 6.25521182343608 0.234173337701232 1.0749517112562 0.10906
0.10908 5.38044543839808 2.95379117736496 6.53811111807759 0.236096787674975 1.09681225801227 0.10907
0.10909 5.72517714989039 2.89350613261162 6.31857535560245 0.241311817751418 1.08315674184319 0.10908
0.1091 5.41348849355945 2.90331514457153 6.28200646888563 0.234751355924173 1.05119765570556 0.10909
0.10911 5.21740991120116 2.74631247779873 6.21586211404555 0.221127826801648 1.07158965179849 0.1091
0.10912 5.1976516668976 2.7726666817533 6.35824620709835 0.222974591233769 1.06485469213055 0.10911
0.10913 5.30221544618065 3.07518055756821 6.44297869968764 0.234427828443187 1.09102360831192 0.10912
0.10914 5.31811999956001 3.03072725823166 6.44833984919895 0.233786510366303 1.08454006944237 0.10913
0.10915 5.11380644936577 3.34241159208235 6.18909652994696 0.237478853875594 1.0497592047732 0.10914
0.10916 5.22565108418926 3.21042304235938 6.07830310566533 0.231917228750875 1.04173462179624 0.10915
0.10917 5.30083357299695 3.4514136066007 6.33288578050708 0.251483724826218 1.09593919809049 0.10916
0.10918 5.43495851669517 3.2594977339927 6.33656786624627 0.246568746182472 1.08946437001498 0.10917
0.10919 5.21763974034019 2.96522569568222 6.29836629157493 0.230649247249138 1.06525412811064 0.10918
0.1092 4.9815226874101 2.9822591814637 6.34086560065011 0.222074715552395 1.05081903412862 0.10919
0.10921 5.06784565548705 2.8921825415648 6.34561640853764 0.225301546878134 1.07977357815093 0.1092
0.10922 5.30251691866602 2.8356022213128 6.38145774613717 0.22572052738957 1.06312286854918 0.10921
0.10923 5.36642566757205 3.00132995947235 6.72077374001544 0.231438256023874 1.11794215654525 0.10922
0.10924 5.61090647630895 2.79955727368943 6.48963536384352 0.23517837222502 1.11802442063486 0.10923
0.10925 5.6154965826109 2.84114341684631 6.59568603724389 0.24022246749209 1.11196834845846 0.10924
0.10926 5.47492334724007 2.96500899941395 6.40822381228378 0.243932848995449 1.09691881524169 0.10925
0.10927 5.4181579571101 3.11704297128253 6.39788246202131 0.233315440153089 1.10531500585733 0.10926
0.10928 5.117871863554 3.27098708058945 6.22399471565979 0.232379047043074 1.05990761766951 0.10927
0.10929 5.30377680656873 3.37052425064951 6.13408987046315 0.245805734111441 1.05314099486684 0.10928
0.1093 5.49698973043332 3.58856512576782 6.12963967714408 0.25653842763758 1.05820885256081 0.10929
0.10931 5.38863791509954 3.33846405312233 6.32284798654092 0.245113459989024 1.06719040518599 0.1093
0.10932 5.62146825476646 3.56023807484904 6.23707688916061 0.255335361911506 1.08677047522622 0.10931
0.10933 5.53201724137747 3.26448831395229 6.20962843366554 0.248995084915434 1.09147576863323 0.10932
0.10934 5.55503257367391 3.13037084259443 6.33380153537472 0.246738361855549 1.0713578759445 0.10933
0.10935 5.21865195290845 3.14415429301742 6.55473255121456 0.227924369773568 1.10440399516548 0.10934
0.10936 4.85979114286376 3.20927964584357 6.67408186123605 0.226613896853297 1.09349208143451 0.10935
0.10937 4.87151069939819 3.39075760971564 6.67232974894154 0.226811195320153 1.09964219019964 0.10936
0.10938 4.92810866759736 3.59232952754453 6.7379280320044 0.241860529271752 1.11951084950065 0.10937
0.10939 5.02709333464969 3.25595708915046 6.62872065518119 0.221219062502696 1.14006637880392 0.10938
0.1094 5.21161777305727 3.30817707935734 6.49343308938776 0.234104299824959 1.10411735623081 0.10939
0.10941 5.18501165046921 2.97222876825595 6.37740302633694 0.23123828401324 1.05875168141376 0.1094
0.10942 5.47391010709278 3.05647843266647 6.18738554680201 0.240035357383691 1.05646143365874 0.10941
0.10943 5.30700463893221 2.89383812230182 6.30374904035966 0.235607181897084 1.05025371525032 0.10942
0.10944 5.19202230883588 3.02692917956265 6.18931383902965 0.225603160881998 1.09551245336939 0.10943
0.10945 5.38166971654288 3.36646415032921 6.30075423584683 0.244346745983654 1.06156308256167 0.10944
0.10946 5.05126414295031 3.06112090109221 6.34704268683401 0.224249216251103 1.07385730438424 0.10945
0.10947 5.13664272021706 3.03447491464066 6.44740719448235 0.231625098622806 1.07059659466323 0.10946
0.10948 5.29775300144377 2.81547293802964 6.58412943820991 0.22609865689032 1.10754756684809 0.10947
0.10949 5.12970801189248 2.76754488794708 6.68051615038376 0.213826532854926 1.11492196304739 0.10948
0.1095 5.48272084487082 2.87618796557372 6.60891105252521 0.239614741957474 1.09477039546313 0.10949
0.10951 5.61702819830062 2.66684493527064 6.41318545254535 0.223465467036435 1.09190324290934 0.1095
0.10952 5.58400856512789 2.75819817561063 6.25923626254313 0.233645150401786 1.10606026094418 0.10951
0.10953 5.66827292514111 2.93881553920808 6.50718595684798 0.241346986758554 1.11040554289846 0.10952
0.10954 5.31709676177225 2.88709569666744 6.31994771229277 0.22933882285348 1.07019506106251 0.10953
0.10955 5.58910996544055 3.17578629683582 6.10614567619548 0.257483246594371 1.03461584431561 0.10954
0.10956 5.54195004982906 3.43553510873577 5.98544262638294 0.254140047661634 1.04520289517944 0.10955
0.10957 5.52824810088666 3.39146516451053 6.15854410762165 0.247864108812684 1.07122094587244 0.10956
0.10958 5.4163159873501 3.06563194586687 6.24587639633257 0.244317090336812 1.06269552099782 0.10957
0.10959 5.41600925967178 3.34217808946981 6.33841633860723 0.246191562663032 1.08478700497876 0.10958
0.1096 5.27529652955245 3.39237784203594 6.35062189452719 0.246112132802282 1.08291419607779 0.10959
0.10961 5.32654083510808 3.16303280388578 6.41034848403475 0.234137538068379 1.09502328071778 0.1096
0.10962 5.18739260564361 3.30966026270174 6.57816660816285 0.236699059471881 1.10848908075851 0.10961
0.10963 5.15993706380092 3.12527827192787 6.57868708701967 0.231172044831026 1.11337714942679 0.10962
0.10964 5.44138619556591 3.19027999079565 6.5578572841822 0.240676058196819 1.13520581765014 0.10963
0.10965 5.26055382860263 2.940693794949 6.63757238380918 0.227076621901021 1.1176738357117 0.10964
0.10966 5.38630571187312 3.213696943353 6.51801440694569 0.231239500615563 1.10506311393478 0.10965
0.10967 5.52315982960954 3.25285315120442 6.22177906193631 0.247787415069262 1.06120420445073 0.10966
0.10968 5.2372889918516 3.09243579939413 6.2960639507739 0.228989672914826 1.07044477494011 0.10967
0.10969 5.4435236959677 3.15512589242608 6.14829830769411 0.245729132457677 1.06762704901358 0.10968
0.1097 5.92460475980103 3.11814415215187 6.2089128938935 0.257209169042565 1.08496598037528 0.10969
0.10971 5.6471000170133 2.86459272291272 6.10712074177902 0.243531879964983 1.0606230478079 0.1097
0.10972 5.61986025674663 2.89338772314182 6.24718727467236 0.23839977252201 1.10174263749008 0.10971
0.10973 5.69299959381353 3.00893018740961 6.47336703620346 0.242953466714701 1.09282644935131 0.10972
0.10974 5.32117233211624 2.92138287221559 6.41202853204187 0.234873078022159 1.09637552829189 0.10973
0.10975 5.25088862113944 2.99189549678123 6.59727989990241 0.234387113688634 1.09139456065514 0.10974
0.10976 5.18149067976976 2.71837692159625 6.46926866282684 0.21771346871717 1.05911618777504 0.10975
0.10977 5.54280433152868 2.88969197056057 6.48559855180883 0.233801058240154 1.12148240484351 0.10976
0.10978 5.99510178063801 2.9953809333096 6.57657907405769 0.254292346083009 1.13590607511102 0.10977
0.10979 6.12966336005095 3.1418167953611 6.41972282795798 0.257911704204022 1.1090597771912 0.10978
0.1098 5.75226810280974 2.80187311750755 6.26611785825187 0.239321918956581 1.06326817769211 0.10979
0.10981 5.26357295371874 3.19367994100746 6.2563356121591 0.235895699232033 1.04178618517106 0.1098
0.10982 5.31486412928499 2.88058614131375 6.27873577244409 0.231653034403033 1.10601257342606 0.10981
0.10983 5.27865535866804 3.1686990736995 6.39558944561888 0.239713758796361 1.07842502969351 0.10982
0.10984 5.19472999203669 3.04952814333413 6.41334980877026 0.22556422307457 1.10857231463201 0.10983
0.10985 5.3106425475466 3.06282479369144 6.22741879150371 0.233450083491506 1.06605549349145 0.10984
0.10986 5.31357694363693 3.30810463834396 6.35683963634608 0.242702322490287 1.07869110524216 0.10985
0.10987 5.55324551729386 3.40579334259625 6.49713248874967 0.248648481640504 1.11071698420408 0.10986
0.10988 5.32747929264768 3.37522170400193 6.69108407707433 0.240546188918517 1.1101010415824 0.10987
0.10989 5.35832752962923 3.63836313267382 6.54298815379391 0.250822141345057 1.11078706109463 0.10988
0.1099 5.29329992308018 3.71875169730814 6.52288503896675 0.247222457806833 1.09409073435033 0.10989
0.10991 5.063298695305 3.46412823959541 6.23765919268319 0.240326101506132 1.04734354336424 0.1099
0.10992 5.29064022166391 3.15750560729367 6.39356243551532 0.230288449799337 1.09049758666919 0.10991
0.10993 5.08902073773809 3.19579049753396 6.33984156185303 0.23615351607787 1.06078295266523 0.10992
0.10994 5.54551190676916 3.29485516811562 6.2470208971514 0.248350726636552 1.06784378816214 0.10993
0.10995 5.32547520212902 3.11456612806001 6.32193580679844 0.238556526411876 1.08885724494853 0.10994
0.10996 5.44796867227329 3.27076398350704 6.24128160375954 0.24337955933741 1.0878363537461 0.10995
0.10997 5.51614275638288 3.25349686641901 6.4426359414642 0.245984603419585 1.10220120780881 0.10996
0.10998 5.33515186959942 3.01257423337559 6.68987157081177 0.229150913680407 1.12169083526158 0.10997
0.10999 5.26600931293549 3.42099025367181 6.9187261242108 0.245691871597626 1.13397938264438 0.10998
0.11 5.53353314461795 3.09927167143079 6.53129089294999 0.244907755642231 1.11315997828374 0.10999
0.11001 5.61324232625559 3.30083086227582 6.5464181893835 0.247793037660776 1.12357326454868 0.11
0.11002 5.34785781611431 3.22067904940588 6.26215605742965 0.247239630463528 1.05373139465472 0.11001
0.11003 5.43343079095496 2.9655383192359 6.44495953077856 0.22889813354795 1.10670641030172 0.11002
0.11004 5.51187548903781 3.05647457365166 6.57935125082412 0.237858473687039 1.12086343123398 0.11003
0.11005 5.33766663367424 3.19701138125554 6.56368137156815 0.243679306836671 1.08283749530528 0.11004
0.11006 5.30369209028125 3.60696190874445 6.37973191094452 0.246745266904932 1.09511651584303 0.11005
0.11007 5.36742651125332 3.17354878130715 6.26414511534787 0.234924478423885 1.07161996860843 0.11006
0.11008 5.224828567325 2.82860995676723 6.57087872630866 0.231235036692951 1.08033618891224 0.11007
0.11009 5.02300424499198 3.00860001183948 6.59050042813463 0.217713194177942 1.07483848684034 0.11008
0.1101 5.20986307305785 2.97986713053423 6.54621848958906 0.228913729198958 1.09455481488553 0.11009
0.11011 5.31347188473944 3.15346360137724 6.5979094704888 0.24533276962848 1.10040909151358 0.1101
0.11012 5.19013097596798 3.39730754160888 6.52507463826132 0.2392200882287 1.08137296912446 0.11011
0.11013 5.48142215478025 3.30864274731461 6.47957663946121 0.250271926635144 1.11493257086573 0.11012
0.11014 5.22476015182975 3.30816026454878 6.71431613404492 0.238642176329208 1.11857811660122 0.11013
0.11015 5.15769746621269 3.15411805492577 6.65748917975411 0.230069780637084 1.11079993777715 0.11014
0.11016 5.32776438343085 2.93391692255347 6.61423148619311 0.241478975024472 1.09019100824555 0.11015
0.11017 5.2354837252279 3.07567312270503 6.40603305569853 0.240193783214599 1.07177728430971 0.11016
0.11018 5.57115625577393 3.46585283089935 6.34922176882094 0.250520851974144 1.10235477637741 0.11017
0.11019 5.5704717430626 3.45635140235804 6.27150210864834 0.25747100534919 1.06679539706369 0.11018
0.1102 5.48669848632935 3.15892964809753 6.23866106490813 0.235269163091763 1.11526313159934 0.11019
0.11021 5.58694707513918 3.11444591544107 6.43256518705372 0.242917740889643 1.10050778893963 0.1102
0.11022 5.36533129258067 2.89746248883663 6.2231801164376 0.232434818835568 1.06118457318515 0.11021
0.11023 5.45417237214728 3.06458150098377 6.41965596834686 0.235684152891515 1.07326393498858 0.11022
0.11024 5.33733982467316 3.19252643706267 6.40680601709108 0.238302426052916 1.08056476404563 0.11023
0.11025 5.63076198847937 3.13396811772531 6.6215583255764 0.244934985432784 1.12220445399379 0.11024
0.11026 5.73373337439866 3.61632898857821 6.54296863437276 0.267296888289639 1.11693700445914 0.11025
0.11027 5.41395294129311 3.16532453631589 6.48529330589091 0.248301908563727 1.08511333124577 0.11026
0.11028 5.5175081328674 3.26999808123601 6.48464705651182 0.249274571345225 1.08939971361794 0.11027
0.11029 5.42623564937761 3.03421132833055 6.47877038313957 0.231904968217402 1.10297761457748 0.11028
0.1103 5.53586491954984 2.82228537646492 6.45252864249434 0.243358293757662 1.08274196145532 0.11029
0.11031 5.4344326322958 2.97844924215365 6.59453280245114 0.237927200834962 1.08117036949971 0.1103
0.11032 5.49329745687824 3.15788315437422 6.34171349459354 0.244362371977522 1.0853852650689 0.11031
0.11033 5.08783064272805 3.06245808195798 6.44128295863008 0.233098165031029 1.06037434732987 0.11032
0.11034 5.57766330594067 3.36166310691521 6.38831974702644 0.246639867761372 1.09877325608945 0.11033
0.11035 5.68667421005623 3.21328235033313 6.3939931644705 0.245589145697812 1.11476041770105 0.11034
0.11036 5.69813562783074 3.46099935349254 6.35118453658898 0.254811201638866 1.09689250368865 0.11035
0.11037 5.49500076694134 3.04778742654244 6.36810763403451 0.245051619356292 1.09101017273921 0.11036
0.11038 5.51896977343781 2.88790508220995 6.50606719059599 0.240299913942066 1.095903629681 0.11037
0.11039 5.3760295461222 2.80001649997203 6.70086858228344 0.224743882633558 1.12591471357021 0.11038
0.1104 5.32738166484646 3.06357818824921 6.61620052567036 0.230780734051524 1.13358388346689 0.11039
0.11041 5.32993689300092 3.0877436641557 6.57976098162178 0.23625684396019 1.10479515741601 0.1104
0.11042 5.3983755995374 3.04507787298668 6.34525201320975 0.237075818620989 1.08032266093726 0.11041
0.11043 5.42003526860319 2.88061415078294 6.34329499383397 0.2349991789471 1.07213877362809 0.11042
0.11044 5.69638578110064 3.11465006953545 6.45334286424212 0.248475697980598 1.10316828998752 0.11043
0.11045 5.36603202323026 2.96352264863825 6.53916011278343 0.238065985372297 1.10884913648498 0.11044
0.11046 5.44046310855468 3.34010312814771 6.4633541980986 0.24413298477521 1.11961232265453 0.11045
0.11047 5.61391716143189 3.31014480233676 6.199766228803 0.244933295841664 1.07793316058883 0.11046
0.11048 5.39907465361397 3.3565137242112 6.38253800459336 0.240913214243285 1.11807906325692 0.11047
0.11049 5.33558260828579 3.00654722237639 6.60849539011101 0.232866199922484 1.10866528055031 0.11048
0.1105 5.67005494065441 3.08813227149275 6.80541684510863 0.249400643765055 1.12280426933973 0.11049
0.11051 5.64150595311413 3.33288383792523 6.4397286536126 0.247192293944942 1.09975702458057 0.1105
0.11052 5.30864467248441 3.23650058595969 6.49543162975911 0.240610939240224 1.09290738146848 0.11051
0.11053 5.36128585216375 3.38651994974185 6.27617368652325 0.248935466595462 1.06693670236664 0.11052
0.11054 5.22572771055136 3.0799586411601 6.16951942249586 0.22985132855089 1.05342850321301 0.11053
0.11055 5.47558701471391 3.34748467683046 6.27907103952054 0.242756791406513 1.0758031354337 0.11054
0.11056 5.48482988714635 3.06022880006005 6.35390269302029 0.237465319944608 1.09363322305933 0.11055
0.11057 5.74461036451701 2.9432154951491 6.37003703389009 0.245164887425059 1.09899743243343 0.11056
0.11058 5.55594878991763 3.08224643088884 6.32216414299027 0.243706082162927 1.1049875738437 0.11057
0.11059 5.44991462436054 3.08825861231256 6.59140816161082 0.234101743392862 1.1260582711278 0.11058
0.1106 5.49608933106015 3.06433835963507 6.71831957237408 0.235413642053618 1.13269644490241 0.11059
0.11061 5.39824671644167 3.18011929293808 6.79592310914427 0.242111869078566 1.12870889016548 0.1106
0.11062 5.23815503721209 2.89352277829272 6.78796192140045 0.226768744156496 1.13846120043006 0.11061
0.11063 5.39161235627836 3.06655845603116 6.64266196153018 0.238645424727315 1.11775113417153 0.11062
0.11064 5.50336306004951 3.06054018573831 6.32613584579426 0.245535242176647 1.09312199690722 0.11063
0.11065 5.66899830131075 2.97182606046259 6.25300674888497 0.236704400461526 1.08620777171494 0.11064
0.11066 5.43797663709317 2.89440037245992 6.2554717102499 0.233953431675078 1.0905988063569 0.11065
0.11067 5.4413948794448 3.36606994427617 6.34914481437422 0.244068110740358 1.08099080353185 0.11066
0.11068 5.34886194981247 3.32080609469306 6.42812834032129 0.237543971880307 1.10998116044377 0.11067
0.11069 5.38841059627245 3.47824769366716 6.3673459957278 0.24940342304987 1.09096891918709 0.11068
0.1107 5.39201159996835 3.58692951469566 6.47476719888189 0.253453536449119 1.06871403213864 0.11069
0.11071 5.12831396746465 3.50262515263957 6.41033762873423 0.244903069424055 1.09054684316754 0.1107
0.11072 5.29260897815789 3.2445359378515 6.63331001927125 0.247959268207685 1.08410283809961 0.11071
0.11073 5.38091847823136 3.17432267295712 6.72253897845402 0.238387449438271 1.1327809060433 0.11072
0.11074 5.44351342148592 3.23674129321301 6.58146011982348 0.236399424043523 1.14743263013387 0.11073
0.11075 5.25330216354121 3.15077870290887 6.65525413369853 0.232848734556078 1.0942307241675 0.11074
0.11076 5.34323844785368 3.17777072864134 6.4808217383293 0.247949995031474 1.08896440750856 0.11075
0.11077 5.30237458134213 3.02386168544216 6.37067866847589 0.235610398435388 1.09593030769587 0.11076
0.11078 5.37696742866303 3.1782084560314 6.54973880034904 0.241227191291738 1.09933346448235 0.11077
0.11079 5.48841511393127 3.39659155622559 6.35541959607557 0.250347480123973 1.08233592242016 0.11078
0.1108 5.41068848702748 3.35189108436339 6.35176831337885 0.244260854171663 1.10616499123557 0.11079
0.11081 5.84834097649446 3.40245407419692 6.37258788882918 0.259329663831725 1.119436043136 0.1108
0.11082 5.75427801105471 3.40699417471549 6.38578955930322 0.265289260868937 1.08392604417412 0.11081
0.11083 5.70429469981791 3.39662014888785 6.53158115383563 0.256544144883238 1.11458261207682 0.11082
0.11084 5.17944520424751 2.88722340381342 6.80331120528554 0.229461384389204 1.11464387895383 0.11083
0.11085 5.04604263710777 3.00343115746122 6.91564834274868 0.224239274809843 1.12768002492631 0.11084
0.11086 5.19168078434394 2.83543231838012 6.72059829830722 0.22529721224712 1.12022121019809 0.11085
0.11087 5.42093526291212 3.18731353462075 6.57528766746477 0.242160907406238 1.11110544869543 0.11086
0.11088 5.58761394902323 3.39898244901486 6.52685119267592 0.251315247926099 1.09404427330311 0.11087
0.11089 5.48667594003924 3.16791410133345 6.43089118878634 0.245013634690325 1.09518518599574 0.11088
0.1109 5.37978613939791 3.05794129780434 6.33730254021427 0.230880836719985 1.0949591128187 0.11089
0.11091 5.72428597225307 3.37182875484532 6.26340394895961 0.263806710539954 1.07364760525132 0.1109
0.11092 5.62969109573944 3.38867057534591 6.3353066566008 0.251385204172487 1.08594102930888 0.11091
0.11093 5.31339843765345 3.2217555968472 6.19063610651957 0.232986400130896 1.06438817125794 0.11092
0.11094 5.25440937358739 3.29508380547653 6.34569820687557 0.23668259730257 1.085799797572 0.11093
0.11095 5.41401151129856 2.97776842639512 6.58594366044566 0.2279690940383 1.13578972934422 0.11094
0.11096 5.6389459803897 3.11853271396993 6.78133319053922 0.251708862200878 1.13695665613265 0.11095
0.11097 5.5924533081421 3.22166973919892 6.64407074040154 0.253609527623203 1.12643122620468 0.11096
0.11098 5.58867004388495 3.18491065813893 6.65350135458251 0.245297054922037 1.13425914237166 0.11097
0.11099 5.70504310487935 3.10086901888507 6.43669252537458 0.253781558858487 1.1017680336472 0.11098
0.111 5.60044545646153 3.30006359608467 6.44780124555848 0.252386136195436 1.10402086198039 0.11099
0.11101 5.5753257157919 3.2404075775216 6.48354760844127 0.246876384031209 1.09941814932167 0.111
0.11102 5.42804710576101 3.09369566855271 6.43912923304131 0.250000639163052 1.09729873700911 0.11101
0.11103 5.6726266919778 3.19221451252827 6.63157353882684 0.252140957938182 1.13717651924151 0.11102
0.11104 5.76695194984859 3.12947284940953 6.36042309254881 0.243178577604232 1.11519235256511 0.11103
0.11105 5.83242595373179 3.49341944517827 6.28135271576816 0.259039931688462 1.11163152444 0.11104
0.11106 5.75390660411365 3.29528334552114 6.46012898963063 0.247016139025153 1.12732411867803 0.11105
0.11107 5.60989676460868 3.26620631627046 6.56366214256577 0.244429578758876 1.10698505613363 0.11106
0.11108 5.39303920756296 2.99601227292883 6.48388981681936 0.231042018269751 1.10331480188457 0.11107
0.11109 5.32657124191162 2.9085108031263 6.5263253495846 0.22101512667373 1.10510514077839 0.11108
0.1111 5.42345986595192 3.08794583771778 6.51722025120769 0.238669691990486 1.10000149463718 0.11109
0.11111 5.61538361067341 3.30797498834198 6.32839743389167 0.248248807141661 1.08845763552897 0.1111
0.11112 5.76938622591914 3.23943074243218 6.3384104513898 0.252636902610714 1.12247783686462 0.11111
0.11113 5.68162224492838 3.14732709344933 6.56519314065515 0.253519038255848 1.12271456612906 0.11112
0.11114 5.60501975416176 2.99151543729492 6.55109741952424 0.234605340675781 1.12955390578309 0.11113
0.11115 5.2955427766271 3.11245597514288 6.59653164150515 0.238775630729593 1.1039858014361 0.11114
0.11116 5.339377645099 2.81544769400342 6.46587090125375 0.23032786123312 1.07948384455587 0.11115
0.11117 5.33058989458084 2.92939232688108 6.47391627822151 0.227780486884892 1.07944151673932 0.11116
0.11118 5.55003529889606 3.37975391036112 6.41721417612169 0.251384729259306 1.10729289625617 0.11117
0.11119 5.82469203310315 3.13704341506102 6.52314087474115 0.253341995308238 1.10433687252829 0.11118
0.1112 5.67577825569653 3.23422824602366 6.51628370721318 0.247028889611013 1.11082414997858 0.11119
0.11121 5.28520699866714 3.24393614850551 6.37924412057074 0.240623307472824 1.08190031609916 0.1112
0.11122 5.00404551701516 3.16344479349142 6.43394700680409 0.231055657822143 1.08141934431062 0.11121
0.11123 4.86743403071707 3.36733017635556 6.7292838202946 0.228383677903193 1.12923414280363 0.11122
0.11124 5.41027103276957 3.40920009300283 6.66289785365955 0.247626471427531 1.11667410234164 0.11123
0.11125 5.41223960889519 3.6529581034008 6.78029322225651 0.260770676752859 1.13407508461455 0.11124
0.11126 5.67810669776228 3.70148333663668 6.50641000082556 0.259591995234999 1.13538324467195 0.11125
0.11127 5.77337882568394 3.48666213142274 6.49126718120424 0.262405609075604 1.11913117945746 0.11126
0.11128 5.71584989032712 3.34380096772346 6.44382393640102 0.261187925626031 1.08296390135923 0.11127
0.11129 5.58382103726477 3.67423808059044 6.60020775012523 0.256163148378986 1.134339217071 0.11128
0.1113 5.21825706626141 3.24829850774217 6.50477327483679 0.234097544995926 1.07789302377607 0.11129
0.11131 5.55751787086276 3.61674097608508 6.51285248188596 0.257367403962966 1.11114049014108 0.1113
0.11132 5.88528417856677 3.26730966425179 6.5684401700331 0.258425182246421 1.1164846776581 0.11131
0.11133 5.627761890786 3.4606970636249 6.66878562535401 0.253911084394495 1.11917466394605 0.11132
0.11134 5.75248302502457 3.03035655684979 6.55097561590912 0.23463231580689 1.15773706819657 0.11133
0.11135 5.64688079470783 2.80828957394121 6.55716542896649 0.233211296722528 1.12723178581662 0.11134
0.11136 5.57876441780919 3.2410309270798 6.55753081358548 0.249049052439996 1.11362123355675 0.11135
0.11137 5.49538161369429 3.21135290311048 6.63940991160546 0.246878905942272 1.12999359584388 0.11136
0.11138 5.57021633493632 3.21688611761852 6.56535483898945 0.246972584993656 1.14395562135446 0.11137
0.11139 5.82044810116612 3.46585919220433 6.60246616853884 0.257614057296788 1.1358975200305 0.11138
0.1114 5.38442337163834 3.32241641104798 6.64534476131353 0.245860533498895 1.09625197928894 0.11139
0.11141 5.41599967311234 3.10380293709537 6.77468795320734 0.233378271028755 1.1286365255922 0.1114
0.11142 5.3305152699249 3.40947677299291 6.7349984133404 0.242720071153225 1.12054201940292 0.11141
0.11143 5.1352297435663 3.0499635896202 6.76903233154344 0.234531890203156 1.10497302589284 0.11142
0.11144 5.23457398911669 3.01714147289068 6.51174574586309 0.225348703021847 1.09651423101248 0.11143
0.11145 5.45846831983798 3.18739743505413 6.32740179767893 0.245923566044135 1.07326982283651 0.11144
0.11146 5.40864667895073 3.09464908219566 6.43076725481668 0.238465804048213 1.11001153370006 0.11145
0.11147 5.50709535917186 3.07874983754104 6.59633519805279 0.241105699523173 1.1106500036437 0.11146
0.11148 5.27188339594772 3.37628637653 6.63132907571303 0.23957228283115 1.1107026114764 0.11147
0.11149 5.42203928667224 3.50826219140411 6.716072156459 0.251439013374869 1.11039975187144 0.11148
0.1115 5.48578722391289 3.50885630178667 6.6706442153183 0.251918151775189 1.11925497476246 0.11149
0.11151 5.82212758172938 3.45217579143495 6.50316722273674 0.268394055466062 1.1052231374551 0.1115
0.11152 5.8744585299282 3.36262723434662 6.6560889007507 0.251618434446066 1.15643343117034 0.11151
0.11153 5.52764917282613 3.24864060778528 6.66012586320214 0.241462018370948 1.13521187677621 0.11152
0.11154 5.39749492250706 3.06843248093876 6.58929966341691 0.238959964876563 1.1190715783736 0.11153
0.11155 5.49947505050129 3.20529920937597 6.59083747480828 0.241158953918697 1.13039511022961 0.11154
0.11156 5.66618265742123 3.69754244914475 6.54589811721869 0.260845681103004 1.11732687212281 0.11155
0.11157 5.55221403015282 3.71950630574906 6.35164010525992 0.257390226694835 1.09753805941406 0.11156
0.11158 5.79243369123897 3.41116029604274 6.37144593724827 0.259031928337856 1.1128610501991 0.11157
0.11159 5.3782205228054 3.02646758807318 6.26864611390673 0.233713194014654 1.08814761130108 0.11158
0.1116 5.7313222029211 3.2286790131208 6.34182407345808 0.258709691522302 1.1042783643748 0.11159
0.11161 5.76957693045079 3.41957528784593 6.48990530521428 0.258909076696981 1.11846043248365 0.1116
0.11162 5.56328841565249 3.28407010263165 6.6397526049429 0.247188630439473 1.1381553270532 0.11161
0.11163 5.48086980604312 3.15305811680572 6.67224444941546 0.239850264468711 1.12152619632352 0.11162
0.11164 5.38243854384025 3.40974101855638 6.59664601702658 0.250806127947974 1.12491642502 0.11163
0.11165 5.38077741496836 3.31963037078376 6.56786970738584 0.244242302688761 1.14108290354736 0.11164
0.11166 5.33913376663278 3.53087347062785 6.74542775631219 0.246549790624529 1.16091625641995 0.11165
0.11167 5.71990797331182 3.3993734872779 6.67352240683523 0.25436136468233 1.14237252757506 0.11166
0.11168 5.49000550638953 3.52890896255666 6.47175054982693 0.252374551960768 1.09722762291689 0.11167
0.11169 5.44508772318829 3.1364011497364 6.32042343485677 0.233136254751191 1.11376010108597 0.11168
0.1117 5.51768611701589 3.09492259934514 6.39323835690829 0.242666020219354 1.11331691062845 0.11169
0.11171 5.91070719543493 3.23894678079938 6.66032376036467 0.256521329845615 1.15478631482647 0.1117
0.11172 5.60276674664948 3.12835779886836 6.68735818092098 0.242956373964997 1.12561334353149 0.11171
0.11173 5.34364114388415 2.93829830589563 6.64907572365826 0.231379297456293 1.11674035121715 0.11172
0.11174 5.35271885036998 2.86506125137242 6.72379078291949 0.228208803351732 1.12748404193664 0.11173
0.11175 5.35866609030685 2.98447426475542 6.64010621148618 0.236333326703258 1.11967470101074 0.11174
0.11176 5.76021955749875 3.01779649879131 6.67985780450924 0.25296496945764 1.1445265307201 0.11175
0.11177 5.95421190769934 3.11163615340543 6.64050457974723 0.249565979405138 1.1482825394098 0.11176
0.11178 6.23590878468414 3.01978978359155 6.66014394140522 0.26029747054437 1.16501732593669 0.11177
0.11179 5.90417956803449 3.03216941707854 6.48640019028263 0.251505972502188 1.09539398969943 0.11178
0.1118 5.8883576033993 3.20479822539711 6.35727799787794 0.250003394172313 1.11881123237032 0.11179
0.11181 5.83161963630201 3.43964178104907 6.5047487137103 0.258772487640605 1.13024461073972 0.1118
0.11182 5.55029396534775 3.25402002063199 6.40915060353509 0.246838560255764 1.09399479678789 0.11181
0.11183 5.58041284380537 3.44629949238491 6.5410685579526 0.245851048349245 1.13243117641847 0.11182
0.11184 5.38588725366174 3.44695696832994 6.53890591319141 0.251206586955269 1.09674479369271 0.11183
0.11185 5.60661008729588 3.76713754154145 6.57638822943986 0.261896048526691 1.1268761532071 0.11184
0.11186 5.81731202246458 3.65431619875676 6.4602627174732 0.261326064556092 1.10935061188646 0.11185
0.11187 5.46276582166291 3.23825977381806 6.47087963269615 0.244131627322194 1.09112001341513 0.11186
0.11188 5.71494117555546 3.35045944149803 6.47358630079895 0.249602597087386 1.10220400525403 0.11187
0.11189 5.44711012888892 3.11135125182038 6.67161171141815 0.239218587960032 1.13865496485949 0.11188
0.1119 5.46433421551236 3.37672204603514 6.80480410257732 0.247284238028509 1.12611985588934 0.11189
0.11191 5.14169148374651 3.32413982556753 6.69761030456556 0.23247911653377 1.13027693123416 0.1119
0.11192 5.51971420152327 3.40697453439394 6.80080046529497 0.252481804958278 1.14028397112358 0.11191
0.11193 5.47152368519722 3.50124119338995 6.66978847874429 0.246543455032694 1.13824893472581 0.11192
0.11194 5.69623523520764 3.29977219562253 6.63349336177263 0.260349412182795 1.12279110795329 0.11193
0.11195 5.63890833129088 2.9638021433442 6.71178741553227 0.240911405843526 1.14113951220089 0.11194
0.11196 5.82640244819952 3.03909544936895 6.43304587681274 0.252811245684616 1.114215105235 0.11195
0.11197 5.7030070637115 2.96300718555843 6.27461330558537 0.243308422307761 1.06689581989266 0.11196
0.11198 5.55122636255237 3.14905037339444 6.2085715181459 0.246362241926871 1.07627441694881 0.11197
0.11199 5.48105963982796 3.23695238783322 6.51167625316158 0.239801682084057 1.09752225575837 0.11198
0.112 5.55499630997425 3.376089459892 6.61051016248856 0.243996681022358 1.13321908263486 0.11199
0.11201 5.54375756268549 3.23910379864512 6.53803504984024 0.243802639629592 1.13595043262595 0.112
0.11202 5.6949835444787 3.49500583632834 6.53267393538071 0.266395655891725 1.10785536192495 0.11201
0.11203 5.79300003159867 3.08442401417197 6.52479802104593 0.242039390013463 1.13893107197839 0.11202
0.11204 5.50040193881193 2.70199488745333 6.82336703793208 0.235110718091265 1.14633433129799 0.11203
0.11205 5.62153199621091 3.21300715654449 6.92849060075943 0.245797567675543 1.1614622997617 0.11204
0.11206 5.59855940914371 3.28961638203265 6.8044829516073 0.250147163098266 1.15639834742773 0.11205
0.11207 5.51111619537012 3.5565557953827 6.69909158832336 0.254034212689894 1.16342499898989 0.11206
0.11208 5.35719275653147 3.51799457911242 6.53245053281584 0.241096168845748 1.11493496169212 0.11207
0.11209 5.46456972165533 3.70132252264374 6.49494104412011 0.259989394451365 1.10070104023776 0.11208
0.1121 5.68140939189558 3.75043227841825 6.43071424279649 0.263790501326728 1.11303729847664 0.11209
0.11211 5.83333918365618 3.67146592877345 6.53644481147264 0.264842692016729 1.109060333779 0.1121
0.11212 5.81842635270874 3.63200556659149 6.59379792842434 0.262950973072026 1.13332659426143 0.11211
0.11213 5.68654638338573 3.50125253321752 6.58229634485683 0.264376998215408 1.10639421855366 0.11212
0.11214 5.30742674903466 3.30510843927863 6.62074101906743 0.239243519961565 1.11166112871474 0.11213
0.11215 5.50080663599394 3.36179679653312 6.65462106481238 0.248886410701742 1.15365551737084 0.11214
0.11216 5.53883738650512 3.57773675892345 6.7993450969679 0.259350905561614 1.15727388408497 0.11215
0.11217 5.41830033902474 3.22866623431048 6.94050061021963 0.23922350901051 1.16655831129186 0.11216
0.11218 5.36840020622525 3.23447350489122 6.68205837157791 0.233060169105798 1.13144216866566 0.11217
0.11219 5.66010929303099 3.09095760269153 6.75892637127447 0.247410199166306 1.15321677752046 0.11218
0.1122 5.66339278122877 3.06044924739933 6.47405795948415 0.245123464852126 1.09272446188473 0.11219
0.11221 5.70329104864463 3.32192128570217 6.63080057550891 0.250489008045019 1.16049372180703 0.1122
0.11222 5.68563656451722 3.11306541236248 6.63585207677134 0.246071685595811 1.11062387744143 0.11221
0.11223 5.60663281437079 3.70282116981829 6.44811713440824 0.267624450768634 1.10049055172984 0.11222
0.11224 5.23736896586806 3.14368412426946 6.5391514354821 0.233298280473508 1.10031884400052 0.11223
0.11225 5.22788237574072 3.2405419500894 6.39373130851474 0.23764427960862 1.08810508585625 0.11224
0.11226 5.52552610957737 3.2888737619794 6.41580385448217 0.247165683943762 1.08549801302241 0.11225
0.11227 5.51645134177294 3.50638359017561 6.50641356575187 0.253536113794158 1.11636899403329 0.11226
0.11228 5.44947305580698 3.33770313438899 6.70835116830876 0.248883315339903 1.11505563649037 0.11227
0.11229 5.0032135155364 3.01797704464696 6.47602366552398 0.217926858163017 1.07404231694871 0.11228
0.1123 4.9985112004845 2.99217941289518 6.30373492923614 0.221477530165726 1.09004585937241 0.11229
0.11231 5.10443696054053 3.05361803438199 6.37448276970125 0.223261096410551 1.06123895698502 0.1123
0.11232 5.26009149753353 2.9716767247136 6.13296438123397 0.230641667000154 1.03852746362555 0.11231
0.11233 5.31174124892502 3.17401821692296 6.04182016851123 0.239319182433484 1.02408187294088 0.11232
0.11234 5.20313543355187 3.33004512980125 5.76017155922318 0.243417357763827 0.992337922160759 0.11233
0.11235 5.10323895788349 3.3445784959628 5.92390723227314 0.238374733896818 1.02893143918463 0.11234
0.11236 5.35525759092388 3.23365467405138 6.16088016904514 0.245856290790149 1.04312306908481 0.11235
0.11237 5.10149292752786 3.66697392437785 6.2013540415127 0.244867539788468 1.06228576134341 0.11236
0.11238 4.84080044300499 3.34290569688206 6.21248153459199 0.231783990216813 1.0553229372075 0.11237
0.11239 4.50155694115136 3.05494783942149 6.24676971922556 0.203266635501694 1.02067553264759 0.11238
0.1124 4.67461207965466 3.03212686834863 6.15124220002432 0.217692828240397 0.996616522560878 0.11239
0.11241 4.71716317855779 3.04013426388205 6.07595211002507 0.226255105984263 1.00587967306266 0.1124
0.11242 4.99093959853824 2.7387846672207 5.95750983889467 0.209430922884492 1.00625641756297 0.11241
0.11243 4.88201291751807 2.73855358292624 5.91453087944433 0.217801376991363 0.971845818756608 0.11242
0.11244 4.49040181690278 3.06829321365538 5.553303011587 0.213607275196659 0.931654419441179 0.11243
0.11245 4.54516691487564 3.30989257525413 5.61053882295888 0.222957722196006 0.951608693118049 0.11244
0.11246 4.32224986870755 3.24667036706167 5.53668905416591 0.212068014558863 0.914795501299872 0.11245
0.11247 4.56391227766621 3.34760001690252 5.54115926689542 0.223931251340882 0.938127683893742 0.11246
0.11248 4.86038837453402 3.56636966027598 5.62172467911028 0.238680968091631 0.937254849231982 0.11247
0.11249 4.42377552500716 3.26211632201471 5.43027298392578 0.213405221681914 0.93549093928938 0.11248
0.1125 4.44727069226776 3.38144151862857 5.61863514878858 0.219178232803492 0.946203662431552 0.11249
0.11251 4.26691770284816 3.45310151115846 5.87675041500159 0.216310597630221 0.98100539466958 0.1125
0.11252 3.99671364328368 3.44296705618428 6.04505007281999 0.205045181119753 0.979692010130337 0.11251
0.11253 4.30992396092195 3.46552461459414 6.18510857492455 0.215980889249981 1.04171374019227 0.11252
0.11254 4.06703005422397 3.14363329373458 6.177700591719 0.197848080725238 1.00216842075898 0.11253
0.11255 4.26755535046557 3.15481900147506 6.06074814184521 0.210929812106554 0.988056121102724 0.11254
0.11256 4.39434649095533 3.2560258009365 5.68573965151516 0.215661260436495 0.947452088955682 0.11255
0.11257 4.13718589753829 3.04906899859363 5.40202649151723 0.198006415577356 0.908027316560345 0.11256
0.11258 3.84972685638403 2.89480708065076 5.17454967850808 0.183020921551559 0.874601896506631 0.11257
0.11259 3.86340107280944 2.91829813977475 5.25408474732936 0.186894603584353 0.877784157419901 0.11258
0.1126 3.82554750660925 2.64970740308744 5.56179678869377 0.188970986337316 0.887076023053349 0.11259
0.11261 3.89810180847645 3.01632692678675 5.48952549716798 0.198063512896265 0.898434434869087 0.1126
0.11262 4.41029358538578 3.671802853923 5.2561696094768 0.224972387505176 0.91341325322636 0.11261
0.11263 4.45001014150494 3.68955080031458 5.35445108155601 0.235044320674233 0.912939438407283 0.11262
0.11264 4.61688201638725 3.56590151653287 5.46308529957706 0.226930132272022 0.952075699973256 0.11263
0.11265 4.40278702436235 3.10308492636378 5.76320767276553 0.204399716220706 0.966094368556624 0.11264
0.11266 4.01065965488791 2.74294839838694 6.00072730154237 0.185390337372474 0.968023321166661 0.11265
0.11267 4.18165787847613 2.68444384522821 5.76406269793493 0.190209964645527 0.967470562846365 0.11266
0.11268 4.06454260265736 3.14470958309826 5.67288626422277 0.203486534520631 0.924656039637772 0.11267
0.11269 4.00512809845028 3.4028490372016 5.62057120389808 0.211534298433879 0.930799179268182 0.11268
0.1127 4.06236113228537 3.31456852684711 5.84383074787693 0.198966728563423 0.976885436355858 0.11269
0.11271 4.24265705322251 3.34239280775107 5.70217306275996 0.209388681666859 0.953586089588561 0.1127
0.11272 3.99893975567517 3.17468113126602 5.5144368294882 0.198732740111005 0.925199130576274 0.11271
0.11273 3.84646801003524 3.12683702680665 5.35376384317166 0.198931422164103 0.889583553862774 0.11272
0.11274 4.06746883654303 3.53442566767989 5.21473941393719 0.219688257531083 0.89072379734323 0.11273
0.11275 3.61535028476259 3.45894746870798 5.36053058965419 0.198971109742976 0.890982055736409 0.11274
0.11276 3.73939354830973 3.54633268515194 5.6600314249989 0.20918409611889 0.955937712923331 0.11275
0.11277 3.73093438780734 3.45194231148191 5.50047809519392 0.199318833373934 0.917980673690976 0.11276
0.11278 3.58334994445299 3.40444756293533 5.44246846188774 0.196807173326104 0.901915581298432 0.11277
0.11279 3.88199075099119 3.33403881605978 5.42597311106853 0.207732539267877 0.889003094686298 0.11278
0.1128 3.7561690333655 3.25397929606672 5.16217743797216 0.19444360387422 0.871118149504569 0.11279
0.11281 3.97550514975997 2.93899368198937 5.35650422257566 0.191084733130801 0.896410413872707 0.1128
0.11282 3.67905109822159 2.6869129286726 5.25856264787368 0.183633844736516 0.838641938580453 0.11281
0.11283 3.80443834995381 2.9185081484213 5.08215463164004 0.188825883362177 0.861559168775102 0.11282
0.11284 4.09857893991396 2.94469264230255 5.07623974620668 0.202491090667971 0.843921307599697 0.11283
0.11285 3.58259741980217 2.84566246922134 5.27001681246101 0.180853248062486 0.839254468268028 0.11284
0.11286 3.66912512000825 2.88985100771417 5.25898085406502 0.180184541841395 0.872313923655822 0.11285
0.11287 3.84843648871667 3.23181321267096 5.26309986119401 0.195327190240881 0.902320481404722 0.11286
0.11288 3.80935691887717 3.12234619189548 5.28338854513589 0.189455344097461 0.900412003592532 0.11287
0.11289 3.4983347705159 2.95266874964987 5.54747325981065 0.180326229153113 0.901481406231275 0.11288
0.1129 3.61797030886756 3.12383932561726 5.8031276343898 0.189382966744599 0.928492640938223 0.11289
0.11291 3.72243011103073 3.39615477117266 5.54654653069815 0.197317346126323 0.912250931792489 0.1129
0.11292 3.53913763214044 3.24218731140649 5.66280796527078 0.184048580368636 0.925537962895945 0.11291
0.11293 3.54591964192209 3.07372474795152 5.38738665470438 0.189763350037966 0.892457953318993 0.11292
0.11294 3.29665504642647 3.04202499212279 5.1638170413369 0.174943832454731 0.822562388456621 0.11293
0.11295 3.30960581225071 2.99757670448724 4.53098826640408 0.184435892202159 0.736155795915227 0.11294
0.11296 3.22444899108096 2.81865186457732 4.41667481152255 0.165806523754076 0.746613012950082 0.11295
0.11297 3.21634838631388 3.02901534349438 4.20305648207154 0.17719632594341 0.709520407769604 0.11296
0.11298 3.09680306223854 2.93914513171748 4.29863981387581 0.167852956874666 0.709906102526773 0.11297
0.11299 3.12468219594406 2.94355589987423 4.19250050176068 0.175421259804715 0.706199604944848 0.11298
0.113 3.40254111049619 3.16030153957004 4.35075973955362 0.184927476668959 0.739567344321941 0.11299
0.11301 3.27006568615048 3.03280021169442 4.51158986972808 0.173543584923576 0.750925603469431 0.113
0.11302 3.18854475936791 3.00561493858489 4.85683077913299 0.175861022641995 0.808548398595393 0.11301
0.11303 3.2183205743573 3.03105986535325 5.0943466275529 0.174140999074372 0.825542399286385 0.11302
0.11304 3.47799056548252 2.90536733364747 5.00806182463824 0.184257322633151 0.835069008320557 0.11303
0.11305 3.56874357505268 2.74309723481408 5.02305615829422 0.170621547151806 0.85655488605377 0.11304
0.11306 3.31459507866191 2.52410176287612 5.12478510003901 0.166842014422678 0.829745967847971 0.11305
0.11307 3.24125306721342 2.90999999637289 4.94025822400587 0.176114025267623 0.791794789664301 0.11306
0.11308 3.37904061974076 2.83229919706009 4.87173917842676 0.174690429431886 0.801312237446664 0.11307
0.11309 2.86857015475098 2.668143810377 4.7345418531742 0.155771226814729 0.770141131366205 0.11308
0.1131 3.18215060037147 2.70720695190927 4.6463293190469 0.158956554780762 0.78125694327226 0.11309
0.11311 3.66875404799087 2.6567182485322 4.50016052503149 0.172972468387659 0.745992157767288 0.1131
0.11312 3.79874660585371 2.62418445951343 4.29618081253793 0.177699829210206 0.715695145027961 0.11311
0.11313 3.52931871472583 2.7484778728672 4.56920938937221 0.182564398013795 0.776936610214018 0.11312
0.11314 3.19717997646181 2.68213280432299 4.77676503326335 0.169853007562192 0.769420704031886 0.11313
0.11315 3.18203590751064 2.54347856747105 4.73589549530376 0.158717780074537 0.776685409420369 0.11314
0.11316 3.09470030681692 2.70547035250226 4.97146619448576 0.16186492701924 0.812541794575286 0.11315
0.11317 3.3298586134516 2.89756706197547 4.90059084909571 0.174567241886645 0.805189828037237 0.11316
0.11318 3.27443002723127 3.15698166409954 4.87232802827172 0.187824060801529 0.791408202043925 0.11317
0.11319 3.16560618027777 3.02795395817606 4.84737708661538 0.167077869446074 0.801846343625317 0.11318
0.1132 3.24462318930788 3.03074875639271 4.72919903922884 0.173483822475375 0.785131751774363 0.11319
0.11321 3.15161649612178 2.74433158958983 4.74555879968121 0.166158236911818 0.765828420069986 0.1132
0.11322 3.18310557879158 2.97220725248353 4.6676194244835 0.17239508376521 0.787710556782796 0.11321
0.11323 3.54159133198188 3.09194458607549 4.60544501341543 0.185753858946474 0.787019437371148 0.11322
0.11324 3.61440046972036 2.8802251419384 4.5538834949721 0.187236468908344 0.74888529253568 0.11323
0.11325 3.37160333581619 3.05067794364791 4.58121686958479 0.178342108985679 0.788303592731534 0.11324
0.11326 3.37535092384288 2.83805699555752 4.56394752590119 0.177146609321273 0.753013197781503 0.11325
0.11327 3.12708228160995 2.71813248704325 4.7169500463471 0.164547083203787 0.76326311030594 0.11326
0.11328 3.3505542066223 2.69595649819958 4.83282612916546 0.168363442034175 0.810149741173909 0.11327
0.11329 3.23550516124896 3.0097343137199 5.02518938813764 0.175977116346406 0.795757607536436 0.11328
0.1133 3.56596897168216 3.13522784932687 4.93266944772288 0.190204136864719 0.820973443628862 0.11329
0.11331 3.51109057366174 2.66967647826382 4.78900837180032 0.169015533232604 0.80739386795643 0.1133
0.11332 3.32619961044128 2.67280765023213 4.9709570001528 0.171553596206285 0.799269308631635 0.11331
0.11333 3.52793875496263 2.66388885757995 4.65428970150622 0.169016770978875 0.787053360064605 0.11332
0.11334 3.29145585574466 2.32253287970459 4.73738203734949 0.157493742130007 0.769679178771259 0.11333
0.11335 3.3873502134805 2.80624868190066 4.53850212416979 0.172210734389012 0.758400287104452 0.11334
0.11336 3.33717392096672 2.58886020740145 4.74778489981219 0.16236647794415 0.805408336651075 0.11335
0.11337 3.318677697573 2.61314773302911 4.73310324959511 0.169140936584154 0.767191314154309 0.11336
0.11338 3.45649086735163 2.95549984054748 4.76713103119241 0.182521450983953 0.79696014510402 0.11337
0.11339 3.40861559672428 2.78455899812673 5.03625888462061 0.177200492928186 0.792669009433315 0.11338
0.1134 3.26981786159173 2.999360899507 5.06390203269043 0.170720809448514 0.812823689407507 0.11339
0.11341 3.15133635944466 3.22628392952937 4.82351915459956 0.179752262388164 0.781355431851846 0.1134
0.11342 3.40428200450767 3.32554315560631 4.71102716856847 0.191947431965367 0.797717276133272 0.11341
0.11343 3.67184920291886 3.31270962318093 4.65608961637596 0.194052831548717 0.792380178753387 0.11342
0.11344 3.52379142059623 3.01925664479385 4.86710561227854 0.182070371576047 0.809905352183083 0.11343
0.11345 3.32335663539085 2.71025648615975 4.73041021346107 0.177426936948638 0.768126715946878 0.11344
0.11346 3.66954472705716 2.51605935188003 4.59113490385616 0.170501719137118 0.771561891399263 0.11345
0.11347 3.32258713367166 2.41052337360241 4.49815545929698 0.170742233221742 0.714367192831613 0.11346
0.11348 3.01629144096603 2.57996226769476 4.31554371644078 0.163889520998446 0.719067890841063 0.11347
0.11349 3.26333817760802 2.55635645529929 4.40574156422259 0.16279491644296 0.743995701097933 0.11348
0.1135 3.31148982667993 2.35727661222816 4.73926134080465 0.159278660192789 0.777131344064979 0.11349
0.11351 3.54769507577683 2.46983941940271 4.77598650661099 0.162602493997527 0.790967932479109 0.1135
0.11352 3.18978660754762 2.34152137046281 5.01199847004058 0.148706565529724 0.819589140361493 0.11351
0.11353 3.48053753697787 2.74316893698967 4.79807706658464 0.177719770129412 0.789031504859402 0.11352
0.11354 3.49601638066876 2.66831624891369 4.96367229591544 0.17272840028874 0.801149331012363 0.11353
0.11355 3.43840021677541 3.03778018455612 5.00402207262258 0.181175008188711 0.827040592619645 0.11354
0.11356 3.22401738855281 3.04393248953779 5.08593122094143 0.179646094500221 0.821077118775536 0.11355
0.11357 3.06291038644601 2.69202869070845 4.89401670028328 0.161041818281995 0.795322702316793 0.11356
0.11358 2.8961935647169 2.68702873014201 4.66037358783093 0.151975048104926 0.749865090147846 0.11357
0.11359 3.12497122958017 3.02937251345331 4.31280444523375 0.168169906909568 0.733279238877938 0.11358
0.1136 2.94682010405105 2.93260971227998 4.30727050590808 0.16181847077018 0.72031248645967 0.11359
0.11361 3.32014457941148 2.86916685543133 4.43199994175071 0.168551638228031 0.751005894983745 0.1136
0.11362 2.99853031909887 2.85333382024137 4.50645476798084 0.166834959688856 0.751500101451368 0.11361
0.11363 2.96592741647396 2.84629218469727 4.48668674483558 0.169322245505115 0.757952607070294 0.11362
0.11364 2.84611922093349 2.5043427673124 4.62852980657222 0.153608806764243 0.769581713090414 0.11363
0.11365 3.10166337980458 2.6190201384634 5.08746622834093 0.162275824433862 0.81944216769011 0.11364
0.11366 3.24120513975065 3.12880490771858 4.97320364208733 0.172677769134723 0.824958064153587 0.11365
0.11367 3.26624573248653 3.16464160211105 5.15006442233183 0.181585241216954 0.807739822214764 0.11366
0.11368 3.47238152693803 2.91898629271178 4.91203614781889 0.180195940912633 0.799793860583202 0.11367
0.11369 3.33097983836923 3.3172135749519 4.69986762568287 0.190465737592316 0.802231362667897 0.11368
0.1137 3.61400829405993 3.01722454670718 4.81101136985689 0.178588307616035 0.82175759533195 0.11369
0.11371 3.47621998955492 2.97946223866221 4.6442351468987 0.185271876574064 0.780846914301658 0.1137
0.11372 3.50001382211893 2.9025298589563 4.49570798403021 0.179553474786628 0.760919507252289 0.11371
0.11373 3.28409506313315 2.50222585506866 4.43410648612968 0.161259025780043 0.740517318724168 0.11372
0.11374 3.37321141726445 2.35580027418838 4.56545301549623 0.1667602770733 0.735765592638336 0.11373
0.11375 3.58635576551519 2.64173725078663 4.55791424518766 0.178305769735533 0.751741163616907 0.11374
0.11376 3.28692337022262 2.63591981404661 4.88375313704694 0.163688880576408 0.822654030669845 0.11375
0.11377 3.3326917522463 2.59473155571817 5.00115996333164 0.163184809135269 0.807617006895093 0.11376
0.11378 3.10099207323545 2.73635061174668 4.86293762702205 0.16393075441748 0.795163215952982 0.11377
0.11379 2.95641395147807 2.99411891242896 4.97732195085665 0.174385141915175 0.802060587111655 0.11378
0.1138 3.34669520185133 3.15883472427865 4.95598890406939 0.182834885402317 0.803904854757249 0.11379
0.11381 3.45721696114009 3.50560095842432 4.90404614302892 0.198727605079157 0.823516603622897 0.1138
0.11382 3.5150255258277 3.17119094769779 4.75486698656704 0.184171368698693 0.801257380167636 0.11381
0.11383 3.3722266139922 2.93301805769015 4.41178920025164 0.17149139298353 0.763138834841677 0.11382
0.11384 2.85754678966915 2.5546459524094 4.38007526410715 0.1554911882447 0.7104200449254 0.11383
0.11385 3.0961054820373 2.92486525192516 4.18578378853165 0.167990573903171 0.715731551999459 0.11384
0.11386 3.23737869641871 2.88971490693474 4.4517524563241 0.167954876168634 0.750552145063215 0.11385
0.11387 3.16284014168166 2.88711739775261 4.74122937467817 0.162041219785589 0.792294640992173 0.11386
0.11388 2.87732935961161 2.7750753362388 4.85227773034545 0.154168878886059 0.788874843821602 0.11387
0.11389 2.82959645862381 2.6178234056354 4.65818134751135 0.150993215343195 0.741481866484202 0.11388
0.1139 3.08078267133641 2.58620501917781 4.84970048631366 0.161194554953019 0.780847566541321 0.11389
0.11391 3.28481881026817 2.84364239501258 5.12957951599822 0.169577580650165 0.820190519872022 0.1139
0.11392 3.00938793511532 2.68854791231062 5.1861394233297 0.168044035277452 0.825819627686454 0.11391
0.11393 3.14275975961047 2.39964328358729 5.26168967827588 0.154123712394123 0.828809950799705 0.11392
0.11394 3.17298426901392 2.63146460289275 4.9542451076879 0.154404424636096 0.816539640051581 0.11393
0.11395 3.56880501761839 2.77179791217485 4.79724530910319 0.177502063076216 0.803215217992559 0.11394
0.11396 3.70386366374637 2.81693280368182 4.56813430837592 0.184421664466051 0.754916979664117 0.11395
0.11397 3.74042740085882 2.90714573675321 4.6256024979753 0.182060337157342 0.790019806533469 0.11396
0.11398 3.61617012672926 2.79990849761977 4.47484419912389 0.187615119189921 0.719385821017394 0.11397
0.11399 3.23266709426649 2.74128190562067 4.43330637365298 0.171801975079417 0.729973786123334 0.11398
0.114 3.14819019262189 2.93058840496273 4.32983356685848 0.173969007691356 0.738919928938801 0.11399
0.11401 3.00078255513684 2.79965129441495 4.43835992698731 0.162800996630272 0.725894999829472 0.114
0.11402 3.29764599948422 2.69688430829465 4.70627715283202 0.16576127106853 0.785065755520279 0.11401
0.11403 3.25537054732058 2.80010746489594 4.83912052719351 0.174736900701489 0.785871568018303 0.11402
0.11404 3.11296032507649 2.85454014951724 4.91184093516802 0.162331936656623 0.785119167041303 0.11403
0.11405 3.01115940650163 2.87693109756799 4.82903531181941 0.165812852375809 0.817074448986073 0.11404
0.11406 3.29430957366905 3.31294619655948 4.78804677143273 0.188372852233443 0.797234755572297 0.11405
0.11407 3.50902746680169 3.2984567620154 4.8725875729347 0.191803904543776 0.792216962507374 0.11406
0.11408 3.40079571799111 2.95157310837288 4.92909127175873 0.173293914380702 0.821820432369062 0.11407
0.11409 3.24506289084176 2.75855257595051 4.91283112065799 0.170996592326147 0.799088662098783 0.11408
0.1141 3.23443795567092 2.77626111397115 4.68895476214083 0.170585856325041 0.747323930346442 0.11409
0.11411 3.35981123362332 2.73541238737877 4.53435807305639 0.170957433654287 0.76996949657003 0.1141
0.11412 3.15117545336439 2.77627771329616 4.58589568929308 0.163250096505427 0.758878194036996 0.11411
0.11413 3.27151194366165 2.84211008519986 4.85636394676436 0.171447101023838 0.779988360948554 0.11412
0.11414 3.37206711097431 2.53273074003013 4.7215372937777 0.167019187886531 0.772127904915764 0.11413
0.11415 3.29479729698255 2.45522489407848 4.68335746828143 0.162547397978608 0.775312258998297 0.11414
0.11416 3.21198980406089 2.34574807475257 4.67976386670648 0.151805704200436 0.774166438129759 0.11415
0.11417 3.6050443499923 2.69792909633659 4.84703328440349 0.164615688059094 0.826963075433911 0.11416
0.11418 3.6910915026851 2.58492470254531 4.79930414868382 0.176155881085036 0.793662844859099 0.11417
0.11419 3.85346361868722 2.75243387802308 4.74400493903273 0.180208878557994 0.823873973848854 0.11418
0.1142 3.68016793794892 2.70660388756063 4.70422055730435 0.182967344640634 0.79754058731507 0.11419
0.11421 3.65107898271743 2.82961023128211 4.68088330547049 0.185170257424258 0.789523748885976 0.1142
0.11422 3.60834927613784 2.41857388824628 4.67633454046136 0.170234459241492 0.787304506675367 0.11421
0.11423 3.63831269764894 2.54736810018509 4.60240149135424 0.173184553476392 0.764384368851721 0.11422
0.11424 3.37872950464103 2.6348570814377 4.8086449451884 0.172307276787642 0.786104046504119 0.11423
0.11425 3.26966474168242 2.84750638718889 4.74028069611931 0.176978974699788 0.781547472988247 0.11424
0.11426 3.05242033764353 2.82045902381726 4.70726009484966 0.167735791570083 0.77846440300239 0.11425
0.11427 2.87029635344697 3.0583778030888 4.46502728750205 0.165676992881979 0.733118080329735 0.11426
0.11428 2.9727693238627 3.09885318113257 4.61035033919377 0.171942838176682 0.757509256621163 0.11427
0.11429 3.17044421093608 2.99301739501079 4.8808443482179 0.162454867446015 0.812432294866141 0.11428
0.1143 3.16683321668658 3.03439335125966 4.80015505073201 0.174957700532045 0.77406217134446 0.11429
0.11431 3.18942742243816 3.16658534616625 4.90564892580136 0.175983068687198 0.79042216900946 0.1143
0.11432 3.02009180122599 2.9307271735571 4.98042422695801 0.168247501123418 0.824629519410979 0.11431
0.11433 3.026906252917 2.7748916306892 4.91967910272741 0.169200361335824 0.769827661475054 0.11432
0.11434 2.97115943108745 2.66265642673798 4.91125173555994 0.15530645034931 0.794873695427115 0.11433
0.11435 3.51323989728205 2.86454004440198 4.91098165415045 0.179113445764954 0.801663885512562 0.11434
0.11436 3.54732351504728 2.92004853788309 4.60405734469619 0.18571662357655 0.773402469319728 0.11435
0.11437 3.53561310314108 2.96454183143556 4.60130635637547 0.181102085380165 0.771365607408325 0.11436
0.11438 3.38332980917396 2.54026867532262 4.58521168969812 0.16439544059407 0.751162854320548 0.11437
0.11439 3.32815257896776 2.4255350182761 4.58161303205385 0.163047636116661 0.731581694974986 0.11438
0.1144 3.58701253627189 2.61734608545721 4.58548790831129 0.17071552563235 0.797100717090702 0.11439
0.11441 3.56845478047721 3.14062298166388 4.63529464346214 0.199588232944906 0.751449255927168 0.1144
0.11442 3.57551915401623 3.336141029135 4.55605242213678 0.198767782134923 0.773155827842266 0.11441
0.11443 3.39274579306747 2.48138002177035 4.73976013539019 0.165791072945617 0.764535526202344 0.11442
0.11444 3.41805540439324 2.86613997047542 4.67052537075206 0.170412979647769 0.788536412436565 0.11443
0.11445 3.45257739748721 2.64429372527177 4.80254204048472 0.171243586317214 0.779270021574964 0.11444
0.11446 3.48785983947716 2.57923329833734 4.93585640256521 0.169060301872406 0.821259643834697 0.11445
0.11447 3.43537090138019 2.83665024086016 4.79429936794486 0.179774612200203 0.788673900734089 0.11446
0.11448 3.5752147129813 2.71849035252092 4.7645767391876 0.174121501894872 0.807724559792256 0.11447
0.11449 3.29403750402448 2.83304673144249 4.8573651752407 0.166406700227748 0.808233594246184 0.11448
0.1145 3.15920021716866 3.02931478553168 4.94409933275578 0.16286654943184 0.790407483345959 0.11449
0.11451 3.08708858067989 3.07097717295928 4.79730952721116 0.168601196385848 0.788389648897479 0.1145
0.11452 3.3407762522152 3.15729382024021 4.73400796070147 0.178508553386088 0.773821954598359 0.11451
0.11453 3.39600675660014 3.11973490461966 4.53016557948551 0.182842179410682 0.755706228816087 0.11452
0.11454 3.12507440443094 2.88831873481888 4.56198347898883 0.168603792332756 0.766371658598091 0.11453
0.11455 3.00729813620612 2.6466103594459 4.66125169503335 0.163113650032771 0.755640341816002 0.11454
0.11456 3.21775054615833 2.59725955917999 4.82871780426319 0.167044626008527 0.762651208130139 0.11455
0.11457 3.01256132403847 2.65069881402823 4.65465755957004 0.161643759594368 0.7848544162029 0.11456
0.11458 3.24071203013889 2.78664116189234 4.82996340515136 0.16533893962138 0.79620277461976 0.11457
0.11459 3.38428740423799 2.87486781334421 4.83635025912201 0.175222923047074 0.809819488371262 0.11458
0.1146 3.27403137838004 2.97763763536263 5.05843398861769 0.175443849238217 0.816377220041041 0.11459
0.11461 3.01686056448892 2.73709195537577 5.12685975583514 0.160723297776499 0.832858237035564 0.1146
0.11462 3.32952980645226 2.50587812023477 5.12159700405612 0.161395716036641 0.820493769356097 0.11461
0.11463 3.42425198889429 2.67282401697843 4.90567472726796 0.177639217353973 0.78498703406335 0.11462
0.11464 3.47259481784877 2.57366275126826 4.78980832236655 0.166854899293257 0.786207667337549 0.11463
0.11465 3.29562908759396 2.78176232543255 4.6739994855118 0.166482484010622 0.77548993596834 0.11464
0.11466 3.28985171225258 2.87596731678135 4.72196044457873 0.172254873912082 0.797968305624567 0.11465
0.11467 3.11646692226331 3.13572207440342 4.70129929482426 0.174913348227219 0.78385668998699 0.11466
0.11468 3.24046137586575 2.89775229680451 4.7089095803812 0.174412203703201 0.773798774098479 0.11467
0.11469 3.48718016128689 2.8436150678813 4.8000779090113 0.189194739560052 0.784084304349161 0.11468
0.1147 3.32649219419285 3.02985482893975 4.80752204098382 0.169329071873316 0.820309305369905 0.11469
0.11471 3.41018008441703 2.91229288847229 4.87892399145741 0.182226281027727 0.793785651522642 0.1147
0.11472 3.41259949730267 3.23502571501424 4.95085993694871 0.190620096201281 0.836459119333039 0.11471
0.11473 3.06586929328404 3.24546752205698 4.73491146306817 0.176469545248596 0.782936365298675 0.11472
0.11474 3.25016803308905 3.25426999761835 4.748818214385 0.181216687147238 0.795532927027438 0.11473
0.11475 3.231522421046 3.26528249365502 4.68316639324133 0.184959641847466 0.779551683860921 0.11474
0.11476 3.26127270299138 3.07314561324882 4.78760682394051 0.180827334520808 0.796321722155732 0.11475
0.11477 3.15664249822036 3.19369029059092 4.70377086444547 0.182169761867221 0.759410265928885 0.11476
0.11478 3.42116685491082 3.0623558984021 4.70022002027169 0.191535510237878 0.782303243066582 0.11477
0.11479 2.99228674352957 2.5403498505648 4.7312423598309 0.153406296638305 0.779069501005781 0.11478
0.1148 3.07069395578523 2.77147818207535 4.93965480403256 0.163001069530293 0.783197095579274 0.11479
0.11481 3.3201183810416 2.84309555064816 4.75022198658159 0.169299558099979 0.782392647561309 0.1148
0.11482 3.43475178720691 3.14898880428319 4.80204415603704 0.183265989698969 0.816309778062793 0.11481
0.11483 3.23716962184969 2.92498302573401 4.88534800787218 0.178714410983523 0.803178037776784 0.11482
0.11484 3.56234928901998 2.80697282081488 4.90296290819672 0.174012948164318 0.826471334721979 0.11483
0.11485 3.3831192229503 2.76027408775241 4.97764415483473 0.1759015311837 0.810292380404904 0.11484
0.11486 3.49236395637643 2.82542843424753 5.03484308899211 0.183601380038315 0.810791073970826 0.11485
0.11487 3.41051867500168 2.54512507777322 4.92539438667804 0.160423245368417 0.821560127817932 0.11486
0.11488 3.39656986163739 2.58146999910537 4.66925801859772 0.170085221181726 0.772729951075883 0.11487
0.11489 3.05311438580813 2.51470553519361 4.65390131005791 0.159175581935337 0.765979965817139 0.11488
0.1149 3.21518445997704 2.60353106530024 4.62448304158466 0.155111185058028 0.774648488470131 0.11489
0.11491 3.59382098208203 3.10259446884244 4.67841262997222 0.188480297833447 0.787339032616424 0.1149
0.11492 3.56088647052573 2.94322640962572 4.59176150196453 0.183827334414532 0.78318501285497 0.11491
0.11493 3.4491380376846 3.49636828619893 4.70969957792562 0.190116381021662 0.823055438077801 0.11492
0.11494 3.40168193075082 3.17051461254728 4.74768799286667 0.17962542357533 0.820888501875734 0.11493
0.11495 3.23809452277616 3.07220207352052 4.82787749464824 0.176258214972146 0.785598045122334 0.11494
0.11496 3.30343794843926 2.97607993636584 4.76292776864611 0.170125239125186 0.787954121281328 0.11495
0.11497 3.21337424620374 3.03078026590311 4.856923375636 0.184171008129761 0.797646452171742 0.11496
0.11498 3.43787836251612 2.79888844994751 4.82552017902869 0.168725711811635 0.801646886638164 0.11497
0.11499 3.2763390995222 3.10521270651358 4.82827194406149 0.191179764531033 0.784053077217797 0.11498
0.115 2.81726139654129 2.75054622825042 4.9900188968515 0.153086233717054 0.812707102199934 0.11499
0.11501 2.92038978274664 2.62921756176483 4.83724987216935 0.157438117692405 0.755959153172255 0.115
0.11502 3.15576800731252 2.69186757523056 4.80664584640481 0.169105277681212 0.792016596709544 0.11501
0.11503 3.21865574611189 2.56706446247496 4.76450511821232 0.161454143705282 0.785785668350978 0.11502
0.11504 3.48220371663268 2.98709299553328 4.77137391139956 0.184115355728132 0.796375588911851 0.11503
0.11505 3.3604072859132 2.51429030578506 4.85335320092558 0.161310958297402 0.789132269992592 0.11504
0.11506 3.41706693656003 2.87664132188972 4.91299824340517 0.180466353388647 0.824410435306146 0.11505
0.11507 3.52474601221515 2.71628231958475 4.78276447642385 0.176993058600867 0.807233939740586 0.11506
0.11508 3.40145867307073 2.76679392542375 4.91822871049522 0.175516381650017 0.806353355453351 0.11507
0.11509 3.10919019363325 2.8925053534271 4.79715718626535 0.16650545425278 0.792117262359216 0.11508
0.1151 3.27835623704022 2.92785462296595 4.85595908866464 0.173310073463902 0.797272055128947 0.11509
0.11511 3.53960502436764 2.70446122925242 4.87598595978936 0.168929028950001 0.821357390762106 0.1151
0.11512 3.41169267665723 2.80551657955206 4.7724526952234 0.174678624168675 0.802948519237091 0.11511
0.11513 3.54077337398075 2.77321560448622 4.78430248867437 0.17405686059497 0.789434737453363 0.11512
0.11514 3.57193524067675 3.04163715147618 4.73657840006383 0.18620733209102 0.817293071999089 0.11513
0.11515 3.48516917538972 2.94455706485246 4.63583214078446 0.176678540205096 0.778675654930927 0.11514
0.11516 3.52905644112518 2.871818507006 4.62016448085336 0.177106052677839 0.774194846894011 0.11515
0.11517 3.42266403155037 2.89402657768522 4.72302629475287 0.175922067937538 0.7762017496982 0.11516
0.11518 3.5042530275923 2.94377542592567 4.90398332788986 0.19128551958849 0.782761553410518 0.11517
0.11519 3.5141961304179 3.25702653515752 4.69552671272815 0.19487026529608 0.788149925031036 0.11518
0.1152 3.61059960201813 3.12380122603807 4.91840776099962 0.189516796263037 0.833368666217957 0.11519
0.11521 3.62137765913576 3.33359373887964 4.69141117539828 0.202092519620705 0.803316138769167 0.1152
0.11522 3.58897144841511 3.04164904789372 4.76985224579556 0.190991409357529 0.785530345353418 0.11521
0.11523 3.55351507124565 2.45595951210265 4.84009558150527 0.163139555070389 0.802939017816731 0.11522
0.11524 3.4886696965228 2.5792220572804 4.70870787543005 0.173800950015104 0.800684700854967 0.11523
0.11525 3.3142772883027 2.53340199064297 4.7382754683906 0.162935804499398 0.776175210306183 0.11524
0.11526 3.40260143610402 2.60660541360361 4.56066475917989 0.164960137307079 0.769481408109444 0.11525
0.11527 3.56320870659783 2.72272836763002 4.62461921143765 0.183459759046352 0.758134567986949 0.11526
0.11528 3.60889834173741 2.79160346530961 4.69761184802053 0.173255570563311 0.79579447458738 0.11527
0.11529 3.37017345883478 2.84806032790468 4.97295327893491 0.168306101666693 0.814311623921441 0.11528
0.1153 3.58408640945104 2.72855009247773 5.01172464286978 0.178247833152424 0.819769481681244 0.11529
0.11531 3.44563148729139 2.41181438086727 5.04078690961467 0.16095003876597 0.815985809466507 0.1153
0.11532 2.97486990748581 2.40633660443564 4.93859509788891 0.141925330278196 0.801438169379021 0.11531
0.11533 3.41933197847194 2.78215505583852 5.05819835361117 0.178111065269046 0.828230678366214 0.11532
0.11534 3.51713499112821 2.78037998983503 5.07025072051157 0.176584955595369 0.798605637890527 0.11533
0.11535 3.40660961684713 2.90580702671415 5.07646919080413 0.166940260984379 0.82558643001892 0.11534
0.11536 3.23524898885374 2.79377980839973 4.82465337812147 0.163137163622328 0.802595292462367 0.11535
0.11537 3.13705845222785 2.78517452142358 4.53055164477413 0.166928393165204 0.760178428660292 0.11536
0.11538 3.30646241627963 3.18162440579557 4.59458372098479 0.187511566838699 0.787715972962208 0.11537
0.11539 3.38480320238329 3.1408899912637 4.70468801789328 0.180043466830698 0.790968461097309 0.11538
0.1154 3.30468430651525 2.90677925886017 4.43272205374939 0.169484712020868 0.736644772112299 0.11539
0.11541 3.3209505303986 2.82622438191967 4.3902172906584 0.168503733645787 0.759620233667603 0.1154
0.11542 2.99038687854457 2.88304836315903 4.79068609128674 0.16796710493972 0.770033076597296 0.11541
0.11543 3.0288757458226 2.775658403248 4.95655605014828 0.163239008042377 0.800450985019747 0.11542
0.11544 3.27425811161633 2.77931539355931 4.96218842411904 0.163496154019116 0.833524576540713 0.11543
0.11545 3.31679067927092 2.65751955180013 4.91095294078286 0.169595458242733 0.782577134320419 0.11544
0.11546 3.36082112970496 2.84939051459714 4.7824582189388 0.16794073157936 0.792845746795784 0.11545
0.11547 3.25946547492903 2.79410473623253 4.86502208072458 0.167713643579175 0.802117313910815 0.11546
0.11548 3.31539542434087 2.8702284904971 4.8651660123674 0.171253597330649 0.786173585763269 0.11547
0.11549 3.39188413520668 3.03805664928779 4.8605519614591 0.183645211875533 0.80000544487843 0.11548
0.1155 3.32673092687024 2.90343700529554 4.56469479251067 0.172737976376593 0.789757420910076 0.11549
0.11551 3.6223513030887 2.95513729005257 4.34692626975098 0.184635197981619 0.72365799745776 0.1155
0.11552 3.48380161438593 3.18781216393679 4.42172543075946 0.19104146416074 0.748589338559934 0.11551
0.11553 3.40629116597917 2.99078530681698 4.55748798064232 0.175351711147536 0.764342057658265 0.11552
0.11554 3.21778227905399 2.82615378465864 4.76619249648929 0.168236468843254 0.788309927483493 0.11553
0.11555 3.0432384364717 2.91417585376209 4.98625739578986 0.172192634050909 0.787812131126824 0.11554
0.11556 3.00816888400542 2.92524296357993 4.9184636244594 0.16080682929599 0.797927363985159 0.11555
0.11557 3.13645481441752 2.96659391200281 4.89746621258942 0.169740569071843 0.82632944887138 0.11556
0.11558 3.18434215114282 2.93049667320178 4.95431420826877 0.171487410621889 0.803940889121262 0.11557
0.11559 3.29200557796216 3.10102353814471 4.84794107090012 0.178747611582924 0.816927066881109 0.11558
0.1156 3.15805603698676 2.70983177027586 4.76245003056867 0.167711766601766 0.770401318060728 0.11559
0.11561 3.29758586669601 3.10078206997966 4.80063152646576 0.179198592408183 0.776700700085165 0.1156
0.11562 3.14156563701737 3.03192642232649 4.6339781921862 0.182303804559261 0.759897371892485 0.11561
0.11563 3.24984029779935 3.10500009155139 4.68454327278174 0.169166863777761 0.780769252012789 0.11562
0.11564 3.18340745383282 2.90443552359454 4.58071204152743 0.169685879099316 0.75811545748144 0.11563
0.11565 3.07895370099601 2.93839297891732 4.62574497940541 0.164310647148548 0.779532944223442 0.11564
0.11566 3.12230075656219 3.06264746296977 4.70700594837259 0.165040364596411 0.780028230063357 0.11565
0.11567 3.30914377078255 2.74758012826109 4.85027795635087 0.161642809164828 0.788554574762489 0.11566
0.11568 2.78895621936428 2.62138008501874 4.8704746559626 0.147237134575247 0.800227076319394 0.11567
0.11569 3.23531556039388 3.00586425005825 4.84966156012578 0.167114734630471 0.821505019225145 0.11568
0.1157 3.08095376421683 2.79633243539475 4.96831524980726 0.167811701270925 0.792797184578279 0.11569
0.11571 3.13411982660661 2.69160857583848 4.95382978657679 0.166968002141221 0.791256518359034 0.1157
0.11572 3.37026816158972 2.86854942692958 4.89519601611559 0.16957840608256 0.833559644476075 0.11571
0.11573 3.18001313928092 2.73853962921377 4.9716543033549 0.172511123995905 0.808115905380006 0.11572
0.11574 3.2173426099561 2.78698584122657 4.8598675849534 0.166313534730541 0.796567554253707 0.11573
0.11575 3.54562563469467 2.66090511872371 4.73869468113287 0.16910645409049 0.811808361737975 0.11574
0.11576 3.38833152977493 2.85973028617205 4.6579296432055 0.179333526476808 0.778144271753094 0.11575
0.11577 3.49550900859003 2.88234555851314 4.75453095867186 0.17596965656847 0.781103854108132 0.11576
0.11578 3.08779721938187 2.82035120010856 4.74546158471912 0.171522865518745 0.74890990633921 0.11577
0.11579 3.49767324502036 3.17493128044727 4.70391380343515 0.185658173181826 0.814360144749498 0.11578
0.1158 3.29508727715833 2.91186644378735 4.70049138916555 0.177669861588862 0.77010925377902 0.11579
0.11581 2.97819474689307 2.79673667169038 4.77149823525312 0.164338113239962 0.765242474638728 0.1158
0.11582 3.07013563734449 3.24474062212949 4.86121787829339 0.174915502481132 0.798582188040861 0.11581
0.11583 3.04637080411127 3.13911360056886 4.95087868473908 0.182685618477567 0.803849714436406 0.11582
0.11584 3.08884333771241 3.14394544926806 4.93835924099113 0.179763152309043 0.788891361685749 0.11583
0.11585 3.47831728374935 2.79682805789042 4.74781297779594 0.170052278756042 0.80715214175714 0.11584
0.11586 3.31760811162873 3.09873695636919 4.84769157918869 0.186189949294568 0.79400746102087 0.11585
0.11587 3.53643984051292 3.11889803726989 4.67799810907785 0.190447397706082 0.781227729544378 0.11586
0.11588 3.47320525168455 2.91696429013164 4.72745842846404 0.181233095889533 0.778451183247861 0.11587
0.11589 3.32350278750833 2.82601593066478 4.61616115223825 0.184276005413262 0.759512708325592 0.11588
0.1159 3.00516731848903 2.88313108469185 4.62706489618268 0.161554810118191 0.78364596530355 0.11589
0.11591 3.19444132155125 2.76917162251277 4.9056079202973 0.166864365731741 0.789456528222634 0.1159
0.11592 3.36149147937221 3.16596358547662 4.81591388392146 0.183324459912829 0.788040220425079 0.11591
0.11593 3.15391213204626 2.87734686477263 4.80639296583974 0.166175747845511 0.794763225622694 0.11592
0.11594 3.36855730786334 2.79496121928128 4.83543472021782 0.171691463252152 0.809967900552586 0.11593
0.11595 3.41008972221601 2.74174549161825 4.90651520538758 0.174853597158577 0.802013257488819 0.11594
0.11596 2.96458797025175 2.6547376494782 5.02278098772948 0.156507713880828 0.799006494090154 0.11595
0.11597 2.95232256210529 2.56886672623917 5.13378244134528 0.144846661115292 0.807698832845739 0.11596
0.11598 2.88384863287702 3.15661233705469 4.8067895540471 0.167490268048455 0.799175893175153 0.11597
0.11599 3.16734468935819 2.87267965820452 4.80838945927186 0.168608039233836 0.80398034221646 0.11598
0.116 3.12476703358074 2.75788664905053 4.72396203679163 0.163324037725465 0.770053463624921 0.11599
0.11601 3.39899577890066 2.65903205564757 4.61929154945476 0.17824264913434 0.755917665983952 0.116
0.11602 3.59468079131322 2.78149820682513 4.70167011471441 0.180886163698451 0.785829937634689 0.11601
0.11603 3.41916671421111 2.83607763754996 4.73946860345792 0.174222087867788 0.784282392781456 0.11602
0.11604 3.19726782756383 2.579190636208 4.73038185837278 0.167383938218029 0.756466078401138 0.11603
0.11605 3.18179299931209 2.78811113446427 4.71235939644593 0.172361934730949 0.756897508325059 0.11604
0.11606 3.31319210687169 3.15784635170001 4.72864508166353 0.179826649126234 0.80227885664472 0.11605
0.11607 3.63407395498163 3.04239110410567 4.84190136054992 0.193407474989694 0.796236673152098 0.11606
0.11608 3.57514223347554 2.87698143572376 4.82110981962916 0.187570627591658 0.771712477323794 0.11607
0.11609 3.42157797636992 2.56849630709996 4.72161357248832 0.156454528059277 0.811570756369065 0.11608
0.1161 3.2358613122851 2.69713802625921 4.94931128952689 0.167127865048935 0.803633460535383 0.11609
0.11611 3.24050206876338 2.67749624358028 4.93806113474073 0.169094232594686 0.791854630350933 0.1161
0.11612 3.4910459492588 2.61624050000374 4.79494411824166 0.171765700603486 0.777210626555578 0.11611
0.11613 3.4471230408552 2.88776267864695 4.72582643679781 0.177250142643757 0.803705668217678 0.11612
0.11614 3.30588348235404 2.92238972996489 4.6856626480577 0.175361665701366 0.778326864120189 0.11613
0.11615 3.39834613009114 3.14190243776616 4.74769258747656 0.182671840872193 0.803066196779983 0.11614
0.11616 3.62597653071216 3.08784299710985 4.68660841693705 0.192952716383385 0.802928860893366 0.11615
0.11617 3.68552205168708 2.77319937491116 4.94740770268367 0.181074241793799 0.814843545151143 0.11616
0.11618 3.37033637897367 2.55613385594415 4.90173708458937 0.165874108145164 0.814902044269015 0.11617
0.11619 3.19580057879867 2.83899610950733 4.84775999164637 0.169945019139981 0.809171719590205 0.11618
0.1162 3.37880826218858 3.09964714595068 4.92128126975483 0.17970134317103 0.83573226703451 0.11619
0.11621 3.46113734016013 3.02975920498736 4.72999076388745 0.1794295697886 0.788936700086626 0.1162
0.11622 3.42817484689197 3.00357009373062 4.8846647642528 0.18837171673593 0.781510095702963 0.11621
0.11623 3.35767675922721 2.80688437750216 4.80954863643934 0.1661604801983 0.80409378503921 0.11622
0.11624 3.30289147858574 2.93113756151529 4.68602016190364 0.171744351394626 0.781135396843873 0.11623
0.11625 3.27305020219567 2.734819291377 4.61365019761441 0.166111890332081 0.75880559529081 0.11624
0.11626 3.23237715948409 2.92369798240006 4.64747401504821 0.176072909818618 0.767418040559366 0.11625
0.11627 3.5664630265592 2.93713363437392 4.65118592492949 0.185831269602915 0.781133081946482 0.11626
0.11628 3.7374647690844 2.79040148281962 4.50490338194203 0.18723892798001 0.763367138485501 0.11627
0.11629 3.59256881634699 2.94740480416029 4.53957269786506 0.186649953567665 0.764161079678623 0.11628
0.1163 3.41336475280103 3.1170155062672 4.74785206398927 0.185457380964773 0.788774960453104 0.11629
0.11631 3.51446313205934 2.97952931412194 4.82904513280124 0.171889349313794 0.829442554901727 0.1163
0.11632 3.46867387334564 2.97508719072516 4.85328905262743 0.188779024891358 0.795276921407348 0.11631
0.11633 3.35093816312943 2.75370603847461 4.81581809872123 0.171253617056157 0.795680577722423 0.11632
0.11634 3.33859804112955 2.6252608780383 4.85890345462704 0.169423605399066 0.805469902389911 0.11633
0.11635 3.26684027118006 2.71234767402078 4.76671276914493 0.166004288300394 0.781799902544433 0.11634
0.11636 3.67654596813411 3.02432940111308 4.8501362288497 0.188516576139875 0.821151798033774 0.11635
0.11637 3.2996903626558 2.68906147815909 4.87679487476601 0.16507149339815 0.810357279249682 0.11636
0.11638 3.3844157101898 2.7188952644227 5.00232406538308 0.171775157885906 0.809140385520839 0.11637
0.11639 3.02118056271032 2.5069041760935 4.76024139932247 0.156929783284613 0.784544214855271 0.11638
0.1164 3.24985189945015 2.885493579618 4.93331231503682 0.17113922504272 0.796425136561033 0.11639
0.11641 3.28452939662338 3.05212615432527 4.91194422629192 0.182404866943348 0.815353269971711 0.1164
0.11642 3.2352368062649 2.64773460513611 5.02646383141884 0.163714593201279 0.814219364748625 0.11641
0.11643 3.51751130359936 2.97538859650063 5.07116715236818 0.189926133956581 0.81997899059287 0.11642
0.11644 3.72110639391616 2.81971950925717 4.81097904140313 0.178225867637734 0.824919419523506 0.11643
0.11645 3.80029894107389 2.71658985254487 4.5972875238254 0.185776243420489 0.769501898853538 0.11644
0.11646 3.72409173503239 2.91286737787073 4.76014596853344 0.187965924393619 0.813538465128512 0.11645
0.11647 3.89001343166143 2.93500595810423 4.77794365247725 0.195948478828605 0.802957143017286 0.11646
0.11648 3.85202775440741 2.83543010018779 4.76031884235589 0.186577350727652 0.807579283279763 0.11647
0.11649 3.71688468890063 2.83787713888401 4.55892170391686 0.191992138339676 0.763409611055097 0.11648
0.1165 3.40709635922919 2.62879778954658 4.62633948237539 0.167863478999482 0.776234006349319 0.11649
0.11651 3.71662050828969 2.43799443878336 4.72773479061562 0.172828067049324 0.791980204195732 0.1165
0.11652 3.85730162859543 2.70746238488356 4.89480032292482 0.183420124043163 0.826926518667295 0.11651
0.11653 4.01606301534165 2.87543754725004 5.0981939445208 0.196646578576968 0.858141322998759 0.11652
0.11654 3.89440625431481 2.72976628901946 4.96902843721568 0.187412461100387 0.801294325553739 0.11653
0.11655 3.85205724537718 2.93531817714162 4.78224244038009 0.19508483443425 0.827037018546474 0.11654
0.11656 3.61770053376373 3.14975415302329 4.97234513916783 0.178031491530682 0.85565315266463 0.11655
0.11657 3.58853147238669 2.89892320426431 4.7420615995986 0.186115054262848 0.780842168686379 0.11656
0.11658 3.89237886943751 3.09677436506507 4.47404293676346 0.200273714991338 0.782623853963758 0.11657
0.11659 3.99044766511428 3.14245032503054 4.71116391818852 0.198347697093578 0.790063258719949 0.11658
0.1166 3.61336418992493 2.83345205676743 4.8262431804551 0.172949354143698 0.850453615549453 0.11659
0.11661 3.65889857264228 3.00246243679678 4.83819037601645 0.189856682806653 0.814119109806805 0.1166
0.11662 3.18459239577897 2.88566237761152 4.71841798557767 0.169170903647158 0.762273715624985 0.11661
0.11663 3.04187884754381 2.82005604932885 4.69444992645787 0.162938722666645 0.780352960326603 0.11662
0.11664 3.69895137014079 3.26834736881225 4.77210813399002 0.197229945554528 0.800387981022558 0.11663
0.11665 3.57942928494706 3.02061535729129 4.79003149408783 0.185498855504096 0.799161898263195 0.11664
0.11666 3.69312034053143 2.97076534200907 4.73345657555623 0.181538028438156 0.800261993626716 0.11665
0.11667 3.62086031320401 2.38417331367528 4.77130238285343 0.170359052927615 0.781660457144842 0.11666
0.11668 3.38180707442893 2.83154511364293 4.90211770039618 0.172066650672625 0.806217602562942 0.11667
0.11669 3.55009622346102 2.92401932749606 4.92959187657165 0.175490706655795 0.828589254769354 0.11668
0.1167 3.39256623346135 3.28131824564476 5.10772860493498 0.190664241758406 0.827472345448405 0.11669
0.11671 3.55687487836662 3.2797710977486 5.05340740089092 0.188770098729602 0.822571264566269 0.1167
0.11672 3.49222242678423 3.43054597190556 5.01396326888857 0.192613745741024 0.838440276593008 0.11671
0.11673 3.65505906547607 2.98301358158634 4.96703756912993 0.188164372102559 0.836997130359693 0.11672
0.11674 3.6665135443624 2.83532691474802 4.86801990488343 0.183257303785955 0.800596090420835 0.11673
0.11675 3.42848935281398 2.65423013049319 4.87750212162483 0.174438849454514 0.820156254651096 0.11674
0.11676 3.39330695544337 2.93411339832635 4.7929414834443 0.176194324515355 0.79981394739826 0.11675
0.11677 3.39307440612819 3.07222080528898 4.7307183548025 0.187330003096735 0.782989249031425 0.11676
0.11678 3.45208475063942 3.00163999804778 4.59340180244384 0.17824497617622 0.767315086263959 0.11677
0.11679 3.36281316245803 2.72361880307716 4.71034420654526 0.159061450712857 0.805883054721573 0.11678
0.1168 3.54214316467094 3.2347457160881 4.72448771504552 0.194523402190667 0.793618038590028 0.11679
0.11681 3.65029769936515 3.48659618720849 4.77038135632113 0.194697808950628 0.793167308310162 0.1168
0.11682 3.8470137422981 3.21674130061036 4.69527080512431 0.197222771684487 0.805159148387258 0.11681
0.11683 3.51305067920761 2.77901951384305 4.94352525627047 0.180608519018288 0.81522546686586 0.11682
0.11684 3.37013316507303 2.85373976989898 5.18219528301547 0.17167614744634 0.833376262308153 0.11683
0.11685 3.45633488898693 2.4171871127199 5.24626335145562 0.164618649567417 0.853171544588381 0.11684
0.11686 3.57185246552207 3.05310408360378 4.83466001047124 0.184883795243764 0.812519365011516 0.11685
0.11687 3.74895733790952 3.2555620807451 4.87270942404671 0.202104884842199 0.824831448084668 0.11686
0.11688 3.67124750062542 3.30614996479021 4.76343071502787 0.196948679267091 0.812755815234947 0.11687
0.11689 3.80076477919557 3.06686858955315 4.79389507454811 0.191454356964551 0.817339316326739 0.11688
0.1169 3.5623266298586 2.70483008357323 4.79652461892161 0.174966898490064 0.796833937257624 0.11689
0.11691 3.68236180558774 2.41853571746238 4.77494096479548 0.169183143510278 0.795321483781224 0.1169
0.11692 3.70816820815289 2.43959523999516 4.76986713669059 0.169580380290464 0.780518415821178 0.11691
0.11693 3.67492957596736 2.3848400328142 4.64268734494671 0.170884237518044 0.770634427686698 0.11692
0.11694 4.00867403217174 2.88337605373895 4.49943546759442 0.197214858635945 0.769688030317495 0.11693
0.11695 3.89433814513001 3.28039900107794 4.52471646784718 0.212947342859781 0.803415487819692 0.11694
0.11696 3.84382312200322 3.07896800691457 4.81633166365935 0.192957710517491 0.851344801729287 0.11695
0.11697 3.53597656237885 2.98842139483588 5.05430925278354 0.186499409351681 0.83020034717024 0.11696
0.11698 3.63382434648344 2.98610234401503 4.89422874481214 0.185740871574478 0.824961795858069 0.11697
0.11699 3.43159205943348 2.63704876174196 4.99556108857738 0.167838406887855 0.816280938501447 0.11698
0.117 3.4008730942654 2.983807631822 5.11670931068126 0.173998064295209 0.828487102472117 0.11699
0.11701 3.38135691831006 2.78854421180491 4.92715902032464 0.173095438037907 0.82449515163977 0.117
0.11702 3.69347352379076 3.00685302332343 4.898670182703 0.187748390251891 0.811569405748368 0.11701
0.11703 3.56141900104298 3.23756740245502 4.81167745627661 0.191135472249519 0.796952570239421 0.11702
0.11704 3.26695157142933 3.37586317103254 4.73803607212872 0.187375930301453 0.789263318962075 0.11703
0.11705 3.32025882390606 2.96505232653674 4.56923298708727 0.17743142994972 0.772229536914961 0.11704
0.11706 2.83609343408116 3.02075179645392 4.78705314247313 0.161034937070903 0.79530056407337 0.11705
0.11707 3.3215546057481 3.05523597757396 4.75148996556006 0.177992991784066 0.775283450765976 0.11706
0.11708 3.55772333168349 3.1913454824986 4.79151646812315 0.195616419006452 0.78945815476071 0.11707
0.11709 3.88567350142534 3.19120470366913 4.67679043371541 0.194061662484286 0.814986275077943 0.11708
0.1171 3.74753355251381 3.03635305412657 4.66517951605239 0.189316483292812 0.815991010933804 0.11709
0.11711 3.64202997299042 2.79430319004869 5.06101433851365 0.181430566361169 0.8230033976971 0.1171
0.11712 3.3997044581917 2.81176604639015 5.22022495127927 0.167267181233712 0.862900808687014 0.11711
0.11713 3.52092512656058 2.41403031323682 5.21030902685632 0.160940172596214 0.844660193455184 0.11712
0.11714 3.60523931916009 2.35855128888607 5.09577025765966 0.16623159233281 0.821612719553814 0.11713
0.11715 4.1235547363889 2.41994433363331 4.63075254969826 0.170099168890105 0.839341261136038 0.11714
0.11716 4.12784577087587 2.62585157302479 4.60539490395287 0.190918687413118 0.778561106941627 0.11715
0.11717 4.21340607557769 2.88655817887302 4.49497442113634 0.203901834335188 0.779484769657172 0.11716
0.11718 4.13214948199145 2.6935829828622 4.48072265941843 0.187432451310665 0.806764907096968 0.11717
0.11719 4.06307462411156 2.58172897822955 4.48445906700313 0.184401018881257 0.812395482045865 0.11718
0.1172 3.893009354623 2.69094813547169 4.59170617143558 0.186292689297472 0.766429436222631 0.11719
0.11721 3.51762733927081 2.48975936558336 4.88576138594279 0.166739387011361 0.822415550360169 0.1172
0.11722 3.85532402370957 2.87481085609124 4.84031867911806 0.186553148327369 0.821647256839546 0.11721
0.11723 3.70065057835016 2.73989533129377 4.95063914573803 0.177347804846684 0.813725303075178 0.11722
0.11724 3.49777167485008 2.81182167663868 5.08320298487683 0.176728562624468 0.853445114279736 0.11723
0.11725 3.64345354269414 3.30904518702394 4.95933182988628 0.190097841882015 0.850238600607033 0.11724
0.11726 3.52629891461174 3.46664899074736 4.93384749172253 0.189867133674557 0.864763756335878 0.11725
0.11727 3.40786135402487 3.23984238382216 4.90268128838407 0.18677721711515 0.81807563403842 0.11726
0.11728 3.42327260614148 3.20029077450359 4.72103339653608 0.186193276850865 0.796552393382818 0.11727
0.11729 3.11201070162475 2.5682324907304 4.66259619434588 0.158912964457375 0.751618037744421 0.11728
0.1173 3.27296877957963 2.62793383665143 4.75006894026516 0.170065711222381 0.778791212266585 0.11729
0.11731 3.56647709513026 2.92561193821485 4.801893127384 0.182391591600982 0.808259751716512 0.1173
0.11732 3.67572000626644 3.05129788171361 4.74246973553166 0.189019343676235 0.801434284757603 0.11731
0.11733 3.58651962648089 3.11271340595372 4.74352656615533 0.186804878331238 0.790635919102405 0.11732
0.11734 3.56475406156049 3.05672301870074 4.82854114200314 0.182176037075851 0.792199335360606 0.11733
0.11735 3.61346187807682 2.60164031229125 4.78252849662591 0.173934192093367 0.79314451408675 0.11734
0.11736 3.55970687361627 2.67479996964988 4.81300395974805 0.175958204692911 0.796203175409125 0.11735
0.11737 3.90360961415414 2.88748581749411 4.86010561982567 0.191323244601979 0.842570661388418 0.11736
0.11738 3.98195143084486 3.12267752959968 4.76631201067339 0.196744945555703 0.816656075770807 0.11737
0.11739 3.8550222958145 2.87802892092296 4.7891281938569 0.185947922069622 0.804119324954268 0.11738
0.1174 3.76302219567159 3.12901547550577 4.78516171822709 0.19332862380948 0.823370929372935 0.11739
0.11741 3.66676662041453 2.87826391081279 4.9435400314303 0.183582221419166 0.820687507855358 0.1174
0.11742 3.85536439339201 2.41093657784165 4.71134852752409 0.178021725404928 0.796804961337218 0.11741
0.11743 3.86150103106755 2.73588839383039 4.61983364445749 0.177703250936748 0.817915740458196 0.11742
0.11744 3.70727993892876 2.59898990231072 4.7586269977515 0.175371434202961 0.797443964234732 0.11743
0.11745 3.65418157331153 2.61177427135586 4.69197243320163 0.177925177680418 0.804100588499763 0.11744
0.11746 3.77831120332456 2.62037344084465 4.86815340347032 0.182696227784946 0.834191632366364 0.11745
0.11747 3.54533374183644 2.7868263118531 4.92072336118599 0.172919514212404 0.808501530172848 0.11746
0.11748 3.88427889023382 3.04547917771045 4.79353724925319 0.191113372015783 0.820713165452014 0.11747
0.11749 3.53016711982524 3.08524310456972 4.9128933392881 0.183703826494602 0.808055534795612 0.11748
0.1175 3.46564036249613 3.11041450801384 5.10199301364766 0.18226147582099 0.842583256921687 0.11749
0.11751 3.64448417142419 3.15715167377329 4.94430206003507 0.19121262891877 0.818380133113765 0.1175
0.11752 3.85392478630511 3.11879246463802 4.77261986887033 0.193741429383671 0.814384355719733 0.11751
0.11753 3.49447441568157 2.83317512397735 4.64017177109363 0.172941426962337 0.779995241440755 0.11752
0.11754 3.56281315262785 2.76899084139466 4.77952518883873 0.176596195300935 0.790235143428708 0.11753
0.11755 3.72810491744676 2.96501454348736 4.84277404529967 0.190144559483556 0.815623541647455 0.11754
0.11756 3.47429349546422 2.9395700513455 4.78454319864984 0.184214360632924 0.825866702078269 0.11755
0.11757 3.3221994145541 3.2104271205815 4.6693891679968 0.189864514598468 0.779130571975718 0.11756
0.11758 3.42274456845135 2.90446876150998 4.75815615497843 0.177335233859149 0.804700345488786 0.11757
0.11759 3.71140391915052 3.28902571753868 4.94986004077317 0.197859278748503 0.840322333170492 0.11758
0.1176 3.80695430131498 3.28512401029998 4.90621127572089 0.195860017240597 0.827218757225897 0.11759
0.11761 4.05711548369589 3.17545599948591 4.69542810679712 0.208021530117992 0.780714482199371 0.1176
0.11762 3.96256844472404 3.18362943773803 4.80206143440187 0.197667956407771 0.803629204925485 0.11761
0.11763 3.64613767662306 2.85646918663886 4.86972550713114 0.181334081369692 0.805558121454743 0.11762
0.11764 3.63756673540443 3.04042908442141 5.01866954871687 0.188866944026455 0.84450785770693 0.11763
0.11765 3.6931610101405 3.0836957676845 4.92321520235124 0.187006278405659 0.831562452036211 0.11764
0.11766 3.31255936738927 3.11734537105142 4.83406169238466 0.182878094871288 0.788603878761772 0.11765
0.11767 3.33362035757925 2.84618757326029 5.01951474543396 0.166895152987351 0.840686304994805 0.11766
0.11768 3.3815915135743 2.84036827310123 4.9818291081043 0.171272530068956 0.824937131466552 0.11767
0.11769 3.62552499833038 2.84446613155983 5.03575637395312 0.179676362976629 0.80940859190127 0.11768
0.1177 3.80141066464025 3.00227571072109 4.90844842402167 0.188940394646794 0.840906344125599 0.11769
0.11771 3.73105370207233 2.9977645771953 5.04109908546026 0.187293571941918 0.836492189153074 0.1177
0.11772 3.41374125518008 3.14049397239904 5.02136589346598 0.180969152500788 0.84634161941248 0.11771
0.11773 3.49052874909031 3.06974512087317 5.07061464384357 0.177902628568639 0.830210790495313 0.11772
0.11774 3.54601781735995 2.98089304393884 4.9789684224418 0.1792285347576 0.819062552170651 0.11773
0.11775 3.75887662455629 3.09238799661866 4.80525743004452 0.192271891842002 0.81030631294022 0.11774
0.11776 3.54077936664461 3.28647859114941 4.77734018281797 0.193336858882248 0.819486263731163 0.11775
0.11777 3.49410178372037 2.82350169935875 4.88424148616644 0.170604929082906 0.811747165700234 0.11776
0.11778 3.56162400840961 3.12033148666044 4.65799289129113 0.196429216462839 0.765390034314365 0.11777
0.11779 3.32776644935404 3.17173592813891 4.78124795811545 0.187423872399662 0.822644359596858 0.11778
0.1178 3.47337590877403 3.10299761293197 4.86775061668628 0.184622424763759 0.817248973134019 0.11779
0.11781 3.42012099293534 2.76065972552725 5.0242253386667 0.168885345222457 0.820691763384777 0.1178
0.11782 3.55013124412204 3.07376557184642 4.71927189669936 0.187912648104951 0.81137409297826 0.11781
0.11783 3.8110107771339 3.06453661381266 4.87703180838197 0.189203992182647 0.818058414094541 0.11782
0.11784 3.60465296310681 2.91911310534818 4.90510708676493 0.181730198682052 0.833467780295321 0.11783
0.11785 3.57591463855305 3.03089756107547 5.03316435590715 0.182338302755353 0.857945191167352 0.11784
0.11786 3.36327527187086 3.09132392492451 4.91295077489973 0.181746009135407 0.810954857601141 0.11785
0.11787 3.23554854351718 2.76500387591865 4.9582759299588 0.16073005602981 0.813468605690256 0.11786
0.11788 3.8265695291187 3.19508939525053 4.84367853736628 0.195920746661578 0.830235930551744 0.11787
0.11789 3.68916017818765 3.02764759460241 4.8820841441814 0.187819013090964 0.836472049026269 0.11788
0.1179 3.93956246371101 3.12988790051159 5.04017400572655 0.204615711185422 0.845215419172311 0.11789
0.11791 3.84901610107606 3.10619633264035 5.07874101031694 0.191783234372255 0.823488794402785 0.1179
0.11792 3.57300944722734 2.78056310841256 4.87990341259499 0.171922114155335 0.820795135380309 0.11791
0.11793 3.79134122186394 2.8651831169895 4.83963199901344 0.191553188568813 0.799674621659957 0.11792
0.11794 3.62399636143588 2.84009740865052 4.78801773139798 0.180370497174942 0.809874681775703 0.11793
0.11795 3.5542138553677 3.05634846847925 4.90510143585225 0.181021710062515 0.844192814952099 0.11794
0.11796 3.48455811617599 2.82089393961441 4.78483438704462 0.182895840780162 0.76527968337771 0.11795
0.11797 3.70008102506382 3.10779786171055 4.68795659232708 0.187868237597024 0.798979102268887 0.11796
0.11798 3.82235639401292 3.13125785100015 4.82521680869852 0.191070083232875 0.835605911095483 0.11797
0.11799 3.98990125293365 3.09939592139217 4.89128499484985 0.195449276659081 0.838498386222646 0.11798
0.118 3.61493694981668 2.64026667950965 5.00088085257661 0.170626091204816 0.836644141943475 0.11799
0.11801 3.51051567657951 2.92959461320522 4.73923614879711 0.180873334410431 0.790320182341972 0.118
0.11802 3.68991462655542 2.82955889514625 5.10461013968636 0.175518282052225 0.829529211961738 0.11801
0.11803 3.70013092843716 3.05295720664684 4.86000097746368 0.187100683566154 0.836250039600634 0.11802
0.11804 3.94422200427857 3.15204232619543 4.84328102816714 0.20576822101297 0.818840642077263 0.11803
0.11805 3.62421158308674 2.83887904509462 4.83922594042841 0.184858614270111 0.801306819508632 0.11804
0.11806 3.14565608471472 2.68437709301236 4.94218010154791 0.15969826777009 0.798299845894463 0.11805
0.11807 3.41531633748399 3.04209985225958 4.84226190682848 0.180827908503985 0.810289191744705 0.11806
0.11808 4.00842772297169 3.04957777402577 4.72535587001626 0.19977445881299 0.82588051133635 0.11807
0.11809 3.61444045687459 2.80127031090028 4.69542469792163 0.176483953671045 0.79398175741143 0.11808
0.1181 3.5669048063082 2.6298234332014 4.78107663471106 0.171927083187877 0.801155770519117 0.11809
0.11811 3.5604619772281 2.52094089472403 4.62547975648328 0.1730702583508 0.770957902651031 0.1181
0.11812 3.83761179122661 2.95354160828539 4.75423915361741 0.192785752958262 0.799249327222132 0.11811
0.11813 4.10569568406004 3.31546488512649 5.06285323486529 0.208265740162781 0.873734156975617 0.11812
0.11814 4.01249311054027 2.87314490624823 4.86570610797641 0.198524738445362 0.82871262763533 0.11813
0.11815 4.06036267435159 2.87625158205021 4.8823606989103 0.199083423768692 0.800492190897735 0.11814
0.11816 3.7729620154216 2.80536383776275 4.81242230876626 0.182250231682156 0.836256400753014 0.11815
0.11817 3.87722235535338 2.79467750136369 4.82942546806125 0.18578410237289 0.81767880779737 0.11816
0.11818 3.7945573858749 2.76825962891661 5.04391799079642 0.181743146759037 0.841064612641759 0.11817
0.11819 3.76314591116878 2.72261645773055 5.02418595375573 0.181004766672193 0.838347623257843 0.11818
0.1182 3.99733978146939 2.97623176791839 4.8153234560546 0.19676224544439 0.800473088159534 0.11819
0.11821 3.99713269257633 3.1066333169385 4.70372598512195 0.19974103692055 0.813126777708255 0.1182
0.11822 3.79210775405035 2.92171363418499 4.80184285577229 0.186212141624021 0.814286653259718 0.11821
0.11823 3.98713434307006 2.84328365296355 4.70879460133088 0.189090134253557 0.815080921238731 0.11822
0.11824 4.10239149198989 2.83327404616105 4.80519001713041 0.197277381940184 0.814860036360254 0.11823
0.11825 3.81901463998538 2.8461012275173 4.82576115593617 0.1786620328522 0.83123426961381 0.11824
0.11826 3.88114123329609 3.04931514181689 4.7327580758148 0.191562202919026 0.820700802536724 0.11825
0.11827 4.10343684240336 3.15535540348331 4.7438340776656 0.201017111462991 0.807481040826709 0.11826
0.11828 3.68181869414958 2.8795072821145 4.90482339295454 0.193107158691165 0.816610741514991 0.11827
0.11829 3.52488934578622 3.07372100855165 4.92730636262658 0.183875371580817 0.819612768295237 0.11828
0.1183 3.89304358602681 2.90409643887692 5.07175717891068 0.192682328279802 0.838559625316716 0.11829
0.11831 3.88161201599001 2.78863636229512 4.97828500263014 0.191294397073562 0.82899080790081 0.1183
0.11832 3.90055565466818 2.8194141416435 4.81130021077292 0.187430311655932 0.814625848753254 0.11831
0.11833 3.97212278392513 2.83166245949092 4.64456721019803 0.195364157732829 0.809272469328926 0.11832
0.11834 3.76823979296889 2.69612922063559 4.83790444154198 0.184804758646759 0.807259600402557 0.11833
0.11835 3.72928845196347 2.96774340865525 4.72712350101684 0.195056717073684 0.797181145586324 0.11834
0.11836 3.74927791695141 3.01614889069398 4.80642310610239 0.192736212211533 0.846081823234541 0.11835
0.11837 3.83289076284293 2.70066299011068 4.98596605684118 0.179680421089271 0.818422879750315 0.11836
0.11838 3.78839150591156 2.78595231112213 4.93633685224006 0.183249581996122 0.820381049576004 0.11837
0.11839 3.7357235060348 3.06378376685772 4.95187965546583 0.187621737802819 0.848045841681151 0.11838
0.1184 3.58930298364048 2.64203387679942 5.02266994893502 0.174899213544884 0.827273169641457 0.11839
0.11841 3.83202824154881 2.65612867195953 5.02815228004458 0.182355712392518 0.857556687497904 0.1184
0.11842 3.77665932342902 2.78876303822998 5.0605731603227 0.180377806430656 0.853323582860983 0.11841
0.11843 3.56109189600983 2.95194882825659 4.98775512869325 0.180167907155185 0.85548596338942 0.11842
0.11844 3.64370182219215 3.00335432916193 4.89951897835763 0.183392235732225 0.798806295362885 0.11843
0.11845 3.79938910909923 2.95672659086347 4.82512045162921 0.187450098923765 0.814031826281913 0.11844
0.11846 3.62454328193161 2.85546848928291 4.71973999149779 0.187640090698622 0.775881747972253 0.11845
0.11847 3.50005273976555 2.95572340170193 4.7070443671945 0.180829939897369 0.795958616980838 0.11846
0.11848 3.60366389039346 3.03235990393597 4.75294627425854 0.186514613736699 0.788843223060764 0.11847
0.11849 3.65836382051476 3.11371199138426 4.89191677701227 0.190006851972641 0.815693248496016 0.11848
0.1185 3.74309992638764 3.39356074555943 4.77769983665146 0.198894056456205 0.820834737908271 0.11849
0.11851 3.71136739646878 3.01236245365857 4.77285563529783 0.190380347803369 0.778801713518779 0.1185
0.11852 3.53893433831473 2.99623192538725 4.77743670543617 0.178151747678104 0.803003461541099 0.11851
0.11853 3.30840427897441 3.36229510628068 4.92313100302204 0.17930234496532 0.831562051757818 0.11852
0.11854 3.54294050927131 3.26372152470051 4.92512749585596 0.192322801106071 0.848377553560192 0.11853
0.11855 3.53540221916556 3.19192263865926 5.20683810058877 0.186377434330064 0.846416733263309 0.11854
0.11856 3.60733962674807 3.3277293830717 4.90106914276884 0.19549387775272 0.845836159830299 0.11855
0.11857 3.51633126716878 2.86282731483096 4.71068797699969 0.178701420006855 0.786244814459725 0.11856
0.11858 3.45464373065466 3.15448877778828 5.03554081480391 0.186208665084006 0.840698638534754 0.11857
0.11859 3.63570947734396 3.21227380860123 4.93824230019294 0.190260101590472 0.849514008985332 0.11858
0.1186 3.83842635445753 3.00708378851466 4.83457092922704 0.193187685337536 0.826190720459747 0.11859
0.11861 3.74584088844119 2.85246007805043 4.73397958925878 0.184706151755984 0.805663412139347 0.1186
0.11862 3.81597469510698 2.79733878388169 4.60949079187886 0.17897666372981 0.798954632715022 0.11861
0.11863 3.55956293718181 2.80083813910217 5.01722209071061 0.180126026632796 0.808608134055036 0.11862
0.11864 3.56540283055625 2.6840249771481 5.07358316608469 0.17622905251944 0.824030353997144 0.11863
0.11865 3.92055908134278 3.03871101509209 5.08062151366964 0.196684581949464 0.837601498644077 0.11864
0.11866 3.70673868211287 3.16079009692631 5.22732989718508 0.19287359811209 0.867124395993485 0.11865
0.11867 3.45846271209912 2.63614291377305 5.00197333481655 0.173297310039346 0.81448116192727 0.11866
0.11868 3.53876818941447 2.87133569926667 4.98608751924507 0.177749574112852 0.847501266459791 0.11867
0.11869 3.6962327704523 3.064316881411 4.94720302737945 0.195692170340172 0.821577778623746 0.11868
0.1187 3.83274396379461 3.06718301660741 4.75638505659927 0.197920738352031 0.800836420258339 0.11869
0.11871 3.56513915723454 3.33226400899352 4.77824650863256 0.185657734449035 0.817029263825583 0.1187
0.11872 3.50263449526786 3.00187059705814 4.83354309337267 0.184086430787133 0.803576938255466 0.11871
0.11873 3.3416498042103 2.9677041112268 4.77731140625496 0.17206461027994 0.803382511375541 0.11872
0.11874 3.47060037371618 2.76229670135575 4.77234871931628 0.176216824004534 0.809916184774714 0.11873
0.11875 3.54441436246362 2.97942245830756 4.68457788086725 0.179118229812727 0.822956473407236 0.11874
0.11876 3.53919363790889 2.96377394545579 4.90121633384619 0.187655953739659 0.778915739620412 0.11875
0.11877 3.57535823915479 2.78576312516621 5.01069573540956 0.176970518800366 0.842836532131748 0.11876
0.11878 3.66479448641978 2.94078670825376 5.07406435322397 0.184076769629827 0.828725930459182 0.11877
0.11879 3.50421082942713 2.99955594033246 5.00593570676372 0.18188121526172 0.834579921441724 0.11878
0.1188 3.24791344433746 3.1029919821614 4.87356739580501 0.175507245030223 0.823681062640415 0.11879
0.11881 3.29228656007228 2.98620553121525 4.68530458935832 0.169958939751875 0.776814828118597 0.1188
0.11882 3.24936658161661 3.13620356336726 4.78397072462795 0.17707544445335 0.797040185224535 0.11881
0.11883 3.66271457901961 3.10655082227123 4.66082990824245 0.188743955354778 0.776670200530303 0.11882
0.11884 3.72729150447776 2.8382420126786 4.63249432326255 0.183331979453038 0.786807637734739 0.11883
0.11885 3.44316475435315 2.59146518427325 4.74161078872835 0.171637032793097 0.774813277743949 0.11884
0.11886 3.38016008306674 2.51210264011534 4.64853020290921 0.170940815378361 0.779082990034451 0.11885
0.11887 3.47075396549218 2.93108620113171 4.63687481945797 0.173563497036188 0.772242960491052 0.11886
0.11888 3.69635712727155 2.98264529581714 4.93144090257229 0.190094723939814 0.818854036069836 0.11887
0.11889 3.83764722208505 3.04797933922424 5.12136713958721 0.194749790591651 0.860329555629916 0.11888
0.1189 3.78152522033424 3.22783000213593 5.04234983397097 0.19695618032406 0.844058776902792 0.11889
0.11891 3.47051838265294 2.98589915343005 4.79688080688933 0.184428049655546 0.803950100282837 0.1189
0.11892 3.44123097010039 2.72903064725262 4.7384181622455 0.173842771070912 0.803004321412581 0.11891
0.11893 3.68449436585545 2.81220878518478 4.70448231045278 0.181534864417662 0.803026166708124 0.11892
0.11894 3.97566623550302 3.13169724568812 4.7708374584134 0.198270868432961 0.802709016997527 0.11893
0.11895 3.99827275766512 2.94598225538091 4.84043403583803 0.183445916187591 0.847487972064722 0.11894
0.11896 3.90587104524149 3.24415438719678 4.78098642211861 0.208261901229655 0.817896977803173 0.11895
0.11897 3.40251880268299 2.94273967630127 4.59172291555989 0.17299398700029 0.76734416675318 0.11896
0.11898 3.34866328984632 2.69988483295487 4.52968758122994 0.169846856034773 0.760662618239597 0.11897
0.11899 3.77348432620406 2.88320087134186 4.66163180555037 0.186856963307999 0.793396158680415 0.11898
0.119 3.57194732542947 2.83607687163981 4.74526280056999 0.180843593405027 0.797323431973483 0.11899
0.11901 3.8130216832921 2.67780157826253 4.84692753426254 0.183859523396001 0.820574048144353 0.119
0.11902 3.76175900565441 2.4106745639653 4.8787022105753 0.178250968086226 0.818116917971942 0.11901
0.11903 3.4857968653477 2.39058303440176 4.91650138844218 0.15817308555286 0.825880631022142 0.11902
0.11904 3.43072033713253 2.86207522319145 4.87268965601172 0.173530417003005 0.837609607450056 0.11903
0.11905 3.59596135544772 2.63480125123925 5.02623153903837 0.17795542214601 0.818839467344155 0.11904
0.11906 3.68327239660262 2.85712744685067 4.95659299297694 0.179434214633364 0.831578874061316 0.11905
0.11907 3.84460140791923 3.01640892857311 4.85040962652916 0.197414802498987 0.824984538823717 0.11906
0.11908 3.86958716503571 2.6864924370562 4.6128877960988 0.191789269244851 0.763519012148222 0.11907
0.11909 3.72160702852341 2.78797668518825 4.67194364826789 0.181569747607118 0.79065604943111 0.11908
0.1191 3.70414321028874 2.48648533416027 4.55743341296523 0.18101434206825 0.749361890760321 0.11909
0.11911 3.45741628956207 2.54024867513809 4.45429379996914 0.166105498661479 0.750233128916023 0.1191
0.11912 3.65421886254623 2.90238666754044 4.64847016419345 0.185443306789899 0.796071317816578 0.11911
0.11913 3.9573171364804 3.10426381829049 4.8523994830598 0.206136171340222 0.794152377337651 0.11912
0.11914 3.80045878540863 2.9945699405613 4.96334522890688 0.187784999239459 0.828763426258539 0.11913
0.11915 3.9268770127091 2.86663546157685 4.88238026580009 0.186304237534317 0.832475790362358 0.11914
0.11916 3.76877033196003 2.55820338207308 4.92451515957669 0.173534470834879 0.838692798101277 0.11915
0.11917 3.87436005273703 2.63119916193109 5.04822249579082 0.178741169301948 0.844900029801919 0.11916
0.11918 3.79335780787163 2.50079592425996 4.98516379382626 0.176439858334695 0.808438236135605 0.11917
0.11919 4.00201917505968 2.53145660315808 4.84236974545744 0.180509239000796 0.806373157607586 0.11918
0.1192 4.08517333528201 2.90481748861527 4.77330169607779 0.197022294313706 0.789629532999698 0.11919
0.11921 3.86711539234443 2.94422382265287 4.54487949862176 0.191774154617437 0.787258111354361 0.1192
0.11922 3.65411843720207 2.92396893107552 4.82026625745075 0.174244298025916 0.791156915718404 0.11921
0.11923 3.50559480168655 2.75123647506293 4.78653545347724 0.176475189884608 0.791258727753284 0.11922
0.11924 3.56948891434938 2.608093255371 4.85691444928223 0.165331396459408 0.827849862289139 0.11923
0.11925 3.66162520598245 2.71664389543197 4.90329449768265 0.184749809320217 0.786872512987169 0.11924
0.11926 3.52606288449382 2.61883807985177 4.92828602464591 0.170923691283038 0.802346097326632 0.11925
0.11927 3.8811016070878 2.74401131442154 4.81733350086272 0.191127599373019 0.795170320495528 0.11926
0.11928 3.69034250875162 2.87780277447188 4.84404745613177 0.186660408243784 0.818328326084198 0.11927
0.11929 3.81680452683096 3.12233041164328 4.82455754027864 0.19399452604016 0.81284294765517 0.11928
0.1193 3.58696165553073 3.33801507513941 4.75664655146864 0.195953494146984 0.78595272617877 0.11929
0.11931 3.73259962547764 3.15140900415714 4.8922489264294 0.196945671570745 0.812114713750281 0.1193
0.11932 3.4756425573707 2.82729302140115 4.86783925263086 0.176062353089581 0.820119733076552 0.11931
0.11933 3.42789087486821 2.87598187382619 4.86649225922422 0.178987701871038 0.759714350763694 0.11932
0.11934 3.52022969153104 2.80326895819114 4.79798927714054 0.172227478784517 0.804839092932153 0.11933
0.11935 3.55927833848677 2.65571232960477 4.63622463352607 0.171646199316875 0.795375464935773 0.11934
0.11936 3.59709258824359 2.40539998571451 4.76870246145452 0.169334353174929 0.78275449953994 0.11935
0.11937 3.77397328739322 2.8621451488541 4.65549507122362 0.186593351921395 0.812786339315207 0.11936
0.11938 3.42414149633689 2.79475338012947 4.8171626555519 0.173125506992397 0.797870676704338 0.11937
0.11939 3.5402414503602 2.62079937143972 4.88406755607198 0.168432031932672 0.815516213084864 0.11938
0.1194 3.52316554659865 2.96170600413354 4.8001568287112 0.186421136424306 0.794737203753854 0.11939
0.11941 3.58908897253235 2.91862669809309 4.89309921158454 0.183371553321074 0.826563038121458 0.1194
0.11942 3.63237581787553 2.80681944472004 4.80951549783599 0.183856275757967 0.81241109636735 0.11941
0.11943 3.58986835311037 2.65250069840326 4.63924723996773 0.174454817389684 0.774217894240599 0.11942
0.11944 3.58889813028145 2.7849669536385 4.68398128920243 0.175987907505956 0.776578896338568 0.11943
0.11945 3.44679888767417 2.97522805928347 4.88661513686439 0.178783013304501 0.808761234735207 0.11944
0.11946 3.36670076418456 2.6063342552595 4.97226996611094 0.160539977266599 0.812208990837748 0.11945
0.11947 3.18233305562225 2.72241463057932 4.97759085828139 0.157077383174635 0.80467831514825 0.11946
0.11948 3.29504404367848 2.85428878867489 4.79152297041123 0.1747416922864 0.805029872918086 0.11947
0.11949 3.52218555931737 2.74062910549815 4.74604387626844 0.177446335990488 0.779101735572308 0.11948
0.1195 3.407056973186 2.69453622132805 4.66943889513191 0.169567064884268 0.773331311146355 0.11949
0.11951 3.54597988017615 2.89401411483307 4.89821684962888 0.177008957529851 0.812650391440325 0.1195
0.11952 3.52647825003659 2.96427181163898 4.80597194954833 0.181063704194216 0.801621438988151 0.11951
0.11953 3.22197611205252 2.89787702959031 4.64800412593476 0.171252147298122 0.763116361954552 0.11952
0.11954 3.3494358380768 2.90049622451183 4.84149524778927 0.177961853739886 0.808464583496524 0.11953
0.11955 3.65269703043274 2.88264368868783 4.7387639001477 0.186329075956785 0.811829679997964 0.11954
0.11956 3.69904568217978 2.62048225276339 4.74950595649726 0.174914415101638 0.79784123502881 0.11955
0.11957 3.65396570315264 2.81530595606766 4.83860067903324 0.185375834335652 0.822582173664285 0.11956
0.11958 3.79607560439668 3.02171231449389 4.62478821215679 0.188561198115812 0.784000220184348 0.11957
0.11959 3.58760530011008 2.70149587086846 4.57879266609177 0.179683151244765 0.76703833389976 0.11958
0.1196 3.69271416015392 2.65343175992693 4.6827201316628 0.174619955534644 0.781311764194068 0.11959
0.11961 3.55102149510182 2.47824456306437 4.7905947307064 0.171139551305035 0.778927263645903 0.1196
0.11962 3.33241800789331 2.5646279345319 4.77681839604983 0.167057248967233 0.786078197937643 0.11961
0.11963 3.31742557210562 2.8363006356556 4.93978470585755 0.170808074013515 0.798427703662787 0.11962
0.11964 3.47862191366003 2.97128593815098 4.78525846629522 0.190672231661548 0.769672904340403 0.11963
0.11965 3.47570818696591 2.97792626020346 4.88316831103451 0.186233720266755 0.798405981237858 0.11964
0.11966 3.2668872648131 2.87621243650534 4.85023562836587 0.170549158337673 0.779324293508167 0.11965
0.11967 3.51867626267982 2.75088931365711 4.87858884256736 0.179676227035922 0.817346567146524 0.11966
0.11968 3.42980627744019 2.86342456555625 4.83574573660523 0.177192237306956 0.812797899722515 0.11967
0.11969 3.27289740997102 2.93677743438389 4.69857423446695 0.175102777280132 0.781556518268743 0.11968
0.1197 3.37079249953575 2.62896044990355 4.53293760093869 0.165051387008341 0.744363971380874 0.11969
0.11971 3.08372777430008 2.76000295323689 4.44527479280932 0.167951578675542 0.746664486371966 0.1197
0.11972 3.36191713270668 2.74252540761275 4.45828801659034 0.168745506095149 0.74531003637605 0.11971
0.11973 3.51785945773542 2.53749386466575 4.44853728509636 0.175373138334122 0.756143872948095 0.11972
0.11974 3.04593551009409 2.54265670658841 4.67300412203957 0.163639258132551 0.764817911672591 0.11973
0.11975 3.10945877475171 2.45521727384224 4.67980519099223 0.154712827663399 0.754419894757694 0.11974
0.11976 3.02935754733542 2.54762155007519 4.69723319461269 0.158157196052424 0.764840719021927 0.11975
0.11977 2.8785285266801 2.27029988777305 4.61903331880831 0.143370136704979 0.751835574631392 0.11976
0.11978 3.17232780681318 2.60584354904426 4.4540402245255 0.163836648495667 0.723666198591622 0.11977
0.11979 3.38428194202372 2.44888654131048 4.64806191767832 0.157528860024804 0.787598122430179 0.11978
0.1198 3.37234513675986 2.60113972046851 4.6273788762998 0.17220108816811 0.752030336422673 0.11979
0.11981 3.09404564298365 2.34670490725574 4.66406425825157 0.153750732353419 0.757751677719248 0.1198
0.11982 3.15565594516818 2.48110738452235 4.59266843153748 0.164944067381482 0.738831574310635 0.11981
0.11983 3.22972601171925 2.56399291563725 4.44621385442871 0.160548083675488 0.768529468998447 0.11982
0.11984 3.2111275593504 2.41359270131581 4.72673310416444 0.153723779586101 0.773087411417278 0.11983
0.11985 3.19996913977785 2.25595003069493 4.6158014780353 0.154647273639908 0.736249208206251 0.11984
0.11986 3.18253186523537 2.2469108875352 4.47963034412107 0.154502623996142 0.739585713407718 0.11985
0.11987 3.1963721279527 2.74017669219443 4.44424035212291 0.163970997775364 0.748026649869753 0.11986
0.11988 3.26454636956481 2.58374780393985 4.50123655675741 0.163738070193251 0.747059212764804 0.11987
0.11989 2.95566241347947 2.57468489235056 4.6168913849991 0.151246769503466 0.739159722937812 0.11988
0.1199 3.08009043955779 2.33097734686207 4.65929386332139 0.154583977799519 0.745668105598007 0.11989
0.11991 3.42174674047957 2.62797519675108 4.48637742339636 0.174406986738892 0.751965790893163 0.1199
0.11992 3.54138112449635 2.44552766384817 4.35766681014365 0.170156621148848 0.762846866017286 0.11991
0.11993 3.4991123219014 2.5111390041497 4.50092458509787 0.161417799675509 0.756352111174375 0.11992
0.11994 3.54460377856882 2.55163027765987 4.39067303076915 0.171987702160338 0.748709301570215 0.11993
0.11995 3.11418321431594 2.39778268691545 4.21641771548539 0.153374956288665 0.726697882559546 0.11994
0.11996 3.06632933221139 2.51596736595395 4.46634700433705 0.158363887694654 0.732704531037792 0.11995
0.11997 3.32342795563543 2.46290731624801 4.40188610531814 0.162799683886975 0.746003854491977 0.11996
0.11998 3.61680299796582 2.2798528043828 4.44803304368554 0.170345442419355 0.745687609650975 0.11997
0.11999 3.41498299353035 2.29275268959759 4.54789103549217 0.156797608007645 0.765465753510287 0.11998
0.12 3.49512480518917 2.38907107083913 4.36839051193222 0.167225613648085 0.72035453644017 0.11999
0.12001 3.30503363768981 2.44834857690325 4.43407852079021 0.159760756698357 0.748485713287766 0.12
0.12002 3.11641955010822 2.26087896520498 4.51233592086762 0.160107271018087 0.726793687615803 0.12001
0.12003 3.18145843844101 2.39110002236906 4.68688727690081 0.162154476636403 0.758869004302435 0.12002
0.12004 3.27395872113408 2.52225209544097 4.76309789987084 0.159382384788264 0.761576855165775 0.12003
0.12005 3.21302519971884 2.43144429811512 4.48533667595345 0.159841828474084 0.742622273103358 0.12004
0.12006 2.85283789598048 2.5468417419303 4.29773819854953 0.154864815476175 0.684750604200562 0.12005
0.12007 2.81194790198183 2.30470045160552 4.30218614110911 0.138932850654933 0.705242668918573 0.12006
0.12008 3.15174733269645 2.26326453198373 4.47771408940803 0.152001588130068 0.710350116081954 0.12007
0.12009 3.44606133284394 2.28213074512948 4.39745091262775 0.162154076919257 0.752351304896602 0.12008
0.1201 3.10864992231942 2.45661426305804 4.48783974516613 0.147516934342219 0.747533123832241 0.12009
0.12011 3.00611120337274 2.40924275170586 4.38585006205638 0.14846099075631 0.715220287258297 0.1201
0.12012 2.97973246020121 2.46766703939967 4.25995100437538 0.155571932835944 0.702954047750022 0.12011
0.12013 3.14290253639884 2.17378123966107 4.41181886372673 0.153874284238575 0.729787987611587 0.12012
0.12014 3.14931008090141 2.3986880034169 4.74219186247451 0.160049046152697 0.763825040834418 0.12013
0.12015 2.82729092514729 1.85176874530293 4.64826863524576 0.121327858838674 0.729364445137837 0.12014
0.12016 3.2737144860688 2.30983337487941 4.38419254026254 0.155413581837216 0.73302443484769 0.12015
0.12017 3.2879392415301 2.43521545716017 4.3676233813858 0.167828095445916 0.718670212750148 0.12016
0.12018 3.29593825464108 2.37948549972002 4.32318166583739 0.157366117153177 0.732368657127224 0.12017
0.12019 3.36894512457345 2.19072468967377 4.4383937367634 0.1580525481352 0.733436052891634 0.12018
0.1202 3.01370988097378 2.21700701821335 4.3798874708536 0.148949004204126 0.726784870537874 0.12019
0.12021 3.03948965739951 2.36893069369726 4.4078133494965 0.159920124954653 0.739095065025146 0.1202
0.12022 3.48940729650718 2.27237736128174 4.36536241682394 0.15417674074379 0.725046847225002 0.12021
0.12023 3.68382037578423 2.61008498338379 4.43830103153904 0.172511488301323 0.745961068437412 0.12022
0.12024 3.19716059817899 2.15405571066146 4.45027833101907 0.15079435047459 0.73863507289142 0.12023
0.12025 2.96626326577421 1.99296829608524 4.53764051999241 0.134477424856384 0.741519124922722 0.12024
0.12026 3.052917769528 2.18469155936242 4.42107689410806 0.142648155270412 0.732289786189086 0.12025
0.12027 3.15814630372311 2.32073282085966 4.53445455566043 0.155502348941985 0.726147747768662 0.12026
0.12028 3.08007693781208 2.7461243775537 4.64503359272809 0.161956592942057 0.776782363034822 0.12027
0.12029 3.3908840847012 2.46215897546631 4.45477229367884 0.167975779518859 0.740319429066419 0.12028
0.1203 3.21488382195681 2.73732553156758 4.45004184191734 0.165538017061411 0.74092676158746 0.12029
0.12031 2.99784364824643 2.25178342705538 4.30390534073562 0.149836734006965 0.724323063329807 0.1203
0.12032 3.05927553092923 2.12712192542916 4.51742268027109 0.144548232905915 0.739863853695127 0.12031
0.12033 3.19427027814775 2.96027125612601 4.49495403526077 0.172575211329297 0.745616630652847 0.12032
0.12034 3.42624060274991 2.80468896439229 4.49467785733665 0.176834111548767 0.752354529131217 0.12033
0.12035 3.07674615782363 2.65280666223016 4.47280121715522 0.161325987858487 0.723378662758185 0.12034
0.12036 3.18756358413034 2.73672144576127 4.41119097271993 0.16355737111177 0.739813162562936 0.12035
0.12037 2.90493755383508 2.24093214326217 4.43889314913647 0.148394694317343 0.704017323543923 0.12036
0.12038 3.01192096923229 2.33046602643527 4.35620825826696 0.145999794212593 0.712722884699325 0.12037
0.12039 3.01684938815387 2.38911964738569 4.58966022718634 0.151401941307155 0.748719037843472 0.12038
0.1204 3.24003464141908 2.44723745314246 4.56288210166786 0.161737011261502 0.747583139506223 0.12039
0.12041 3.31853897016996 2.50055476359161 4.59611957657552 0.164628855637799 0.752793594071556 0.1204
0.12042 3.19502003619167 2.36369610607196 4.52816458518945 0.160807011138502 0.723869794730414 0.12041
0.12043 3.17016893929659 2.42548194853091 4.49938961546838 0.154349372682434 0.74134909057787 0.12042
0.12044 3.09409105180602 2.3927512063939 4.74170242785184 0.148387353700327 0.78006421109549 0.12043
0.12045 2.9990922860172 2.15919841357776 4.65880532988808 0.157655776880431 0.734196337538135 0.12044
0.12046 3.00926148060851 2.51157665170437 4.52746629556636 0.153183901133554 0.738496581784862 0.12045
0.12047 2.86424910059055 2.26627351310511 4.60841160879389 0.145335994114564 0.715761959450526 0.12046
0.12048 3.30581079798397 2.32450478445792 4.50305219130671 0.161771121573273 0.728528204849107 0.12047
0.12049 3.35926978275643 2.53144082831254 4.37771675230179 0.16313951713646 0.74255906073263 0.12048
0.1205 3.2864790338572 2.38308333004143 4.38626556775751 0.156543070297923 0.732197419830193 0.12049
0.12051 3.18355960218758 2.30482561997347 4.22707486154967 0.151487996948047 0.698650659431112 0.1205
0.12052 2.89128960313699 2.32575707579514 4.34424994468228 0.139884532016948 0.697809213027631 0.12051
0.12053 3.05283658849566 2.38621777116535 4.31587374698447 0.153736825806188 0.703383172185314 0.12052
0.12054 3.1931609403355 2.63907721943983 4.61946346858041 0.172316995290921 0.761212255279052 0.12053
0.12055 3.28511590735665 2.61171827345995 4.55243766043117 0.163037641945472 0.767414787854647 0.12054
0.12056 3.25714228658225 2.599920312172 4.51569509896459 0.165590103079452 0.751767407233533 0.12055
0.12057 3.09438437418993 2.76284884744927 4.71428215252008 0.163905925157601 0.766202949442064 0.12056
0.12058 2.91017992144744 2.56518051454132 4.84333780170483 0.149704990388142 0.792197295865659 0.12057
0.12059 3.08334230764681 2.19392493430582 4.75171851926408 0.152675200458019 0.73746661408816 0.12058
0.1206 3.24332557634821 2.55163265956469 4.77986661512634 0.161569803518334 0.788686824160321 0.12059
0.12061 3.13738034094642 2.57269656348619 4.54499569669443 0.159623788355958 0.739292762810501 0.1206
0.12062 3.19733957570071 2.58664198337479 4.524042048553 0.161452436976998 0.76231593385931 0.12061
0.12063 3.22592644090179 2.68878880242489 4.43653552279255 0.161085916969533 0.743689557801738 0.12062
0.12064 3.1618474010776 3.11601390090572 4.29209227349393 0.18589071647804 0.726572097756021 0.12063
0.12065 2.99386405109485 2.88046416036695 4.35683595373614 0.160448851981813 0.722792930053069 0.12064
0.12066 3.06037219976622 2.57910463446766 4.31695029052398 0.159123927042915 0.718575593138935 0.12065
0.12067 3.02092336584358 2.57756993644078 4.29412365709152 0.158114538489027 0.706398803250918 0.12066
0.12068 3.03009713354326 2.3486754269441 4.46999495331437 0.161976341922269 0.732457601087954 0.12067
0.12069 3.12000985085025 2.63869915228483 4.65778466412071 0.15532624964695 0.780396828787699 0.12068
0.1207 3.23663960841177 2.61043566481143 4.79094659256191 0.156565246601611 0.798226402967266 0.12069
0.12071 3.20866751644697 2.26469250367359 4.69211805019372 0.154654703148555 0.741103745793251 0.1207
0.12072 3.1221224289429 2.36211702323705 4.53876937610088 0.146273566254905 0.772012805397118 0.12071
0.12073 3.00588140386419 2.42915058937613 4.60235962059974 0.150801533727965 0.76121168056675 0.12072
0.12074 2.87367681499711 2.54259198575981 4.75263733165902 0.149064336850859 0.760231559549364 0.12073
0.12075 3.2126861563086 2.33817934248984 4.64394868104274 0.150990028230523 0.756312188189236 0.12074
0.12076 3.19007542315705 2.2437531955202 4.17684408593882 0.151387559701469 0.711681272129463 0.12075
0.12077 3.22654777990386 2.66831457635193 4.02931520701312 0.172616008626093 0.708599949895401 0.12076
0.12078 3.5648213612423 2.62025640018204 4.30946065409296 0.173683475026559 0.686335707152079 0.12077
0.12079 3.02665753142635 2.4895080820659 4.31969595902909 0.151866781018811 0.719544959348111 0.12078
0.1208 3.17931044411872 2.56119322727918 4.81657643767574 0.165345100421213 0.791564686106071 0.12079
0.12081 2.96790194204503 2.30666568493455 4.80365795387373 0.147909349033713 0.75611824523385 0.1208
0.12082 2.75565042547024 2.3781300812516 4.56450343631491 0.138726010816861 0.743995792275043 0.12081
0.12083 3.14667174331875 2.50627493077871 4.79171028076987 0.158607677609454 0.783886743890908 0.12082
0.12084 3.15303780633915 1.88423033292461 4.63568486579984 0.142708835702465 0.723766935045376 0.12083
0.12085 3.3725162177258 2.05231103008329 4.60259463824424 0.150070436313981 0.787177019891712 0.12084
0.12086 3.28821825997541 2.36152124717797 4.69542833571974 0.163203460856015 0.746943261681818 0.12085
0.12087 3.01932747741292 2.37045759534491 4.41331762900226 0.152314849435559 0.70658557742933 0.12086
0.12088 3.03020150406616 2.74168673948634 4.38418233388143 0.160214645677423 0.757306598806829 0.12087
0.12089 3.19557662770985 2.84783771781988 4.54233154484344 0.171541348583791 0.735346918340148 0.12088
0.1209 3.39904841277297 2.6715386791184 4.28443723730784 0.165267979441844 0.717896952802511 0.12089
0.12091 3.38825070879554 2.7036122892562 4.48245075105572 0.171235445013321 0.721299237726488 0.1209
0.12092 3.35397648941588 2.53415149900884 4.29372045290486 0.16941859751605 0.713286099721299 0.12091
0.12093 3.322088724171 2.24176883012401 4.38017963773742 0.15501194357519 0.724765523216149 0.12092
0.12094 3.14466778531047 2.00109828277227 4.47990427071496 0.145834249182758 0.735795651331089 0.12093
0.12095 3.36863591766465 2.23603489884589 4.73285474804046 0.157066478501486 0.755693296908172 0.12094
0.12096 3.39811811064806 2.59487778571811 4.66864569677095 0.17546358324358 0.767232690923149 0.12095
0.12097 3.34545937069948 2.44990193017356 4.55188221512368 0.158001855630168 0.77391634092694 0.12096
0.12098 3.29884223500818 2.2178701258577 4.83497662669386 0.155073170155641 0.767616597112973 0.12097
0.12099 3.18823487764412 2.40388876759466 4.76318440680149 0.162411903417953 0.760136112402555 0.12098
0.121 3.21962643572204 2.18693587978324 4.56828601161148 0.14453581748524 0.764219187024272 0.12099
0.12101 3.35808963262077 2.34030221569217 4.54391273190005 0.161524741336968 0.762084709606107 0.121
0.12102 3.27075258485267 2.37699444173975 4.41662843488008 0.161720035272867 0.729993784592816 0.12101
0.12103 3.11649287978415 2.36386499472057 4.46335906055798 0.154036196252178 0.728855786327921 0.12102
0.12104 3.20968388501228 2.58283591064182 4.43815154834914 0.165334060992346 0.736762946756952 0.12103
0.12105 3.41760047594656 2.46457387014775 4.43200957139201 0.161352285094371 0.757772137105693 0.12104
0.12106 3.04552866334654 2.53950172811958 4.47281746160782 0.167478510712092 0.704083704553142 0.12105
0.12107 3.25190081629251 2.79863261176037 4.50888352240776 0.170188753709259 0.725034550734507 0.12106
0.12108 3.3222710841451 2.3321987553513 4.40037487616252 0.160353413208948 0.725411177161116 0.12107
0.12109 3.07140099767994 2.56869703564238 4.23922614397264 0.159010304320724 0.710510549216847 0.12108
0.1211 3.13895194386569 2.52320671799672 4.3984965240796 0.165616417286666 0.706309760377707 0.12109
0.12111 3.16332790251449 2.36764933151756 4.38356359216718 0.157393133410526 0.733088479663906 0.1211
0.12112 3.20956193604572 2.10125107049201 4.77519667944285 0.142873802577753 0.761033213645184 0.12111
0.12113 3.27579447851824 2.25845861908602 4.62691403876734 0.151360195271102 0.751824752715267 0.12112
0.12114 3.31673901589896 2.2629128424946 4.58937156368832 0.156276482879675 0.749446158247609 0.12113
0.12115 3.04189366880054 2.33705515054166 4.45934276269758 0.150512346033203 0.741366914281999 0.12114
0.12116 3.22019938938998 2.12253955389949 4.66965462946328 0.149747224739698 0.772079544769288 0.12115
0.12117 3.12166413336939 1.91464867991925 4.78880457692202 0.12754153829954 0.777935596511834 0.12116
0.12118 3.08713184518867 2.19093113298451 4.54867324821597 0.153053320445053 0.731352777786799 0.12117
0.12119 3.0609241435784 2.30351664402966 4.45736511272681 0.145346987530993 0.735554963704387 0.12118
0.1212 3.30318472395901 2.38854298881345 4.44595758020344 0.162580161918719 0.734249780981289 0.12119
0.12121 3.39462214188813 2.8082759202327 4.34392064901238 0.183310420995653 0.720399234257992 0.1212
0.12122 3.29269343604846 2.50944244244168 4.54272994608344 0.147506448146327 0.801818859850757 0.12121
0.12123 3.3090389904775 2.62472535768591 4.41905450615937 0.165624442556686 0.728285618156321 0.12122
0.12124 3.40660546233876 2.2979802231329 4.50041758056022 0.155117851153839 0.760584612735917 0.12123
0.12125 3.56017875997783 2.43304791015726 4.37971769675129 0.165344015054527 0.741782251997562 0.12124
0.12126 3.37962547259538 2.38960468637808 4.46779456118035 0.165672780295702 0.754952977477775 0.12125
0.12127 3.16685469130981 2.31394075028897 4.57277223773566 0.151996623602477 0.749424184910485 0.12126
0.12128 3.05669258133139 2.24731391596959 4.68230956129016 0.147938666177996 0.770729503452827 0.12127
0.12129 3.28704175571899 2.74103678388785 4.80434046425046 0.174238352936627 0.781533790774336 0.12128
0.1213 3.66980106641636 3.03088660502669 4.70286782230983 0.195789070525154 0.768105204776777 0.12129
0.12131 3.39969623397697 2.79702231809142 4.37921381741774 0.173891807264825 0.73508108065069 0.1213
0.12132 3.20880350853317 2.72875140287707 4.3250046289292 0.169305442883576 0.7279368220042 0.12131
0.12133 3.45686212641847 2.50456648089049 4.29560425683474 0.166256181415328 0.707926887050741 0.12132
0.12134 3.23448885437762 2.5415693606359 4.36848207535844 0.164577465900606 0.730647244526883 0.12133
0.12135 3.22333117040175 2.434965127961 4.43379051347892 0.166639726184157 0.741297450093603 0.12134
0.12136 3.4159281553411 2.60621766535716 4.58499054574333 0.172525527331001 0.775775231793042 0.12135
0.12137 3.14596232544358 2.63826509574678 4.36662582681659 0.169504433503573 0.714611031503746 0.12136
0.12138 3.36228052432856 2.66403177337666 4.71195848879201 0.17459837957418 0.773417051441018 0.12137
0.12139 2.97419231035298 2.58494968310743 4.74650222885727 0.155113308452402 0.758736339923149 0.12138
0.1214 2.96932043804634 2.33543506343488 4.73070553240393 0.152753901568054 0.78444912349966 0.12139
0.12141 3.13333658955208 2.49238647812828 4.94057396633579 0.151990337832925 0.786921756933657 0.1214
0.12142 3.14385997952743 2.25905282898729 4.96782312846662 0.143634522353172 0.820951341851245 0.12141
0.12143 3.08237968586 2.23258092040246 4.71892209274635 0.149858141130597 0.76871297833727 0.12142
0.12144 3.2921227893001 2.48744460393401 4.52339026509869 0.161369368628475 0.720522074956305 0.12143
0.12145 3.24765005928684 2.43754854195966 4.64523171791411 0.161867089673502 0.754973603516062 0.12144
0.12146 3.09345416080679 2.39150248050458 4.32277597919044 0.159708118384047 0.716477336099672 0.12145
0.12147 3.23100490217364 2.44806123307832 4.44071644590823 0.158891670994567 0.726773416273073 0.12146
0.12148 3.09291274159528 2.76299997449737 4.30563314594022 0.163420913052303 0.742741257594769 0.12147
0.12149 3.07949184983309 2.86048198449452 4.59944957726953 0.167946749218817 0.772687402215525 0.12148
0.1215 3.12090418389937 2.69428932083866 4.58093528634166 0.172384941922144 0.715231286813012 0.12149
0.12151 3.33258560991928 2.53055643475269 4.54856029484789 0.161090456685055 0.763026736304903 0.1215
0.12152 3.32828193101718 2.25068785939417 4.67407713245923 0.154024686706586 0.754979267123691 0.12151
0.12153 3.06873743826339 2.49067327198612 4.83075248981723 0.157632961937069 0.76898142860706 0.12152
0.12154 3.11546373131754 2.4273155910661 4.94957766718532 0.153323282972645 0.809347281329365 0.12153
0.12155 3.02104542362422 2.35447140565185 4.67038811387981 0.146592229377529 0.763308178719914 0.12154
0.12156 3.16400082201575 2.94509363193686 4.67587263078489 0.172833078713532 0.76386844961704 0.12155
0.12157 3.20089482498227 2.85009258782984 4.65581695500814 0.163697180880055 0.776015578111982 0.12156
0.12158 3.09204224475337 2.64930674356728 4.4761823923481 0.161940711078222 0.739381333861755 0.12157
0.12159 3.18360076391078 2.75503109388836 4.5752181105677 0.169416388299361 0.755030204972147 0.12158
0.1216 3.19216035200847 2.67103524490461 4.53216844333877 0.164841993206222 0.741074201587538 0.12159
0.12161 3.26582557149619 2.92627524507594 4.63191265374013 0.174571019826341 0.786750951034862 0.1216
0.12162 3.23537665325209 2.82465984222245 4.45969778973788 0.16959850044821 0.753742559458825 0.12161
0.12163 3.12111593304455 2.74801159056456 4.54678949320593 0.171998189284351 0.747785986685654 0.12162
0.12164 3.16503077823306 3.12379270381986 4.729689392398 0.175419786445449 0.788304663954443 0.12163
0.12165 3.08752616471889 2.80094198969163 4.78076136470867 0.168654021245854 0.767922068302269 0.12164
0.12166 3.10441203171776 2.44299752860075 4.69944017907411 0.147127881556854 0.770191016772347 0.12165
0.12167 3.29301559326981 2.521684839897 4.57266013050742 0.159276922143377 0.744332524263542 0.12166
0.12168 3.1257671180409 2.46191371396512 4.54086617290967 0.156995265143846 0.752900261225277 0.12167
0.12169 3.34936520250635 2.37543666335817 4.58870065639191 0.152644246837166 0.768987090203649 0.12168
0.1217 3.3199156160747 2.48110149563504 4.69480911458337 0.159534899794943 0.75702351874645 0.12169
0.12171 3.32992380113645 2.39962216675713 4.59939315699424 0.157956744389097 0.746539996285042 0.1217
0.12172 3.32292346640283 2.48629511997248 4.52693000204294 0.165453985271602 0.771175062988736 0.12171
0.12173 3.390700132513 2.25276282579443 4.36141560863328 0.163752709496711 0.726916824066333 0.12172
0.12174 3.1152790948684 1.93230472212738 4.43426590606337 0.134209692400071 0.748399829367617 0.12173
0.12175 3.08749081947573 2.41080176399061 4.6939313847189 0.155959427046764 0.764483368244877 0.12174
0.12176 3.19127148470169 2.52686387535152 4.64286012972806 0.160814338025167 0.752755334431483 0.12175
0.12177 2.94214731639677 2.32962759316384 4.78275536536415 0.141943914465821 0.777718969621695 0.12176
0.12178 3.23188912747113 2.26784832107491 4.69186559874699 0.159069316007983 0.750203245165052 0.12177
0.12179 3.21397471088869 2.82215249804391 4.6131766899309 0.172258517323431 0.771422318563459 0.12178
0.1218 3.05894827840779 2.51333775422979 4.47009232304027 0.156784945689732 0.75047342420434 0.12179
0.12181 3.08005947936587 2.15076253501977 4.75953248958456 0.144566925941796 0.774139343906801 0.1218
0.12182 2.98379902977828 2.23570005932371 4.6668798545998 0.146333510656939 0.769826701351653 0.12181
0.12183 3.54760898282903 2.34622980886942 4.59147328660177 0.170561746624173 0.749411686262186 0.12182
0.12184 3.27515494232004 2.68865169841144 4.41579767825204 0.17403201159934 0.726124322201001 0.12183
0.12185 3.60552054897325 2.82576072656138 4.46285661684913 0.175513164094141 0.752868306960853 0.12184
0.12186 3.11241933633077 2.93689421100535 4.25239128348702 0.174074773064057 0.715763407338287 0.12185
0.12187 3.45297850000128 2.96084906693071 4.32959887197732 0.177254035231881 0.74098981065699 0.12186
0.12188 3.37867198492511 2.64816489500898 4.44356124618457 0.174559619820514 0.748321556643224 0.12187
0.12189 3.38540062625388 2.32891805715864 4.50453226553925 0.165991708655354 0.740787284580875 0.12188
0.1219 3.59310589887909 2.34494743331207 4.66564662556876 0.16134040637916 0.773234671183892 0.12189
0.12191 3.40136526128964 2.45482758662749 4.59463496626614 0.164516617509697 0.770630906922188 0.1219
0.12192 3.50088322080284 2.49903634037865 4.57151368828018 0.171469648365604 0.741012361294191 0.12191
0.12193 3.21032783842805 2.24547688169203 4.77375384150681 0.147591703130213 0.812283108869022 0.12192
0.12194 3.0764676217091 2.36479810100132 4.68638606248931 0.156679382450473 0.732445426345434 0.12193
0.12195 3.1741761583037 2.53916634880673 4.72436540311392 0.159409866272227 0.776633758819289 0.12194
0.12196 3.36976343273486 2.63949520776307 4.54771633033867 0.166580243652285 0.783712324260678 0.12195
0.12197 3.45929381314683 2.55545814893106 4.45147118398421 0.172503474176861 0.738343823205057 0.12196
0.12198 3.49660693641652 2.47630757485379 4.47317430954684 0.161223000771021 0.754454213312772 0.12197
0.12199 3.17418947757882 2.31478961583382 4.56526792704935 0.158725050910118 0.730070753250752 0.12198
0.122 3.25390547617107 2.2806786554263 4.58865455695118 0.1564019079405 0.766856168800088 0.12199
0.12201 3.52543737248496 2.55682102652506 4.65862045373747 0.177694291994302 0.772767312194119 0.122
0.12202 3.33943887515093 2.55865157497738 4.63783592033492 0.17018917400404 0.756272793570579 0.12201
0.12203 3.42358528608435 2.47378879710007 4.45415544203116 0.164486856988584 0.76233905587605 0.12202
0.12204 3.0979595005158 2.50543548873053 4.50976541752008 0.159257240282904 0.756775529966132 0.12203
0.12205 3.27182798826607 2.47375250463259 4.6774647876934 0.155881244448313 0.762438770482354 0.12204
0.12206 3.15730544462694 2.18542614208894 4.71362315972054 0.153584833546144 0.761818763810482 0.12205
0.12207 3.30395537245701 2.18504350710443 4.5464960202152 0.1528834604768 0.747682761708486 0.12206
0.12208 3.34269420585988 2.40464340912093 4.57680305752343 0.167345158215826 0.733182058845416 0.12207
0.12209 3.26094377754738 2.56967657887879 4.52532928743611 0.160166474534991 0.756344724685203 0.12208
0.1221 3.520685073316 2.50635826537378 4.53003857667758 0.172182816938765 0.753253661726083 0.12209
0.12211 3.41572835174307 2.46438993825425 4.6683116706282 0.161679411045226 0.765141916711155 0.1221
0.12212 3.38164817008952 2.54172490413556 4.5954845101592 0.162220024214164 0.770971666106476 0.12211
0.12213 3.39471075670986 2.36598597415056 4.58765083343292 0.157540960536589 0.777298198920114 0.12212
0.12214 3.79931453685327 2.36097206111396 4.55208357760608 0.177294450282991 0.756274688982105 0.12213
0.12215 3.29215017250576 2.39349788643772 4.67554613216736 0.159426182095624 0.768391085774669 0.12214
0.12216 3.10437892790586 2.41030244235141 4.72335815761535 0.156388647418546 0.772363703850325 0.12215
0.12217 3.33119376546734 2.86111152753575 4.7199378020033 0.171696403428184 0.75137883457439 0.12216
0.12218 3.35394104681588 2.52052887828303 4.62502872361172 0.172166860477891 0.771822756449408 0.12217
0.12219 3.23476229856197 2.45499955267289 4.57906186072837 0.163832857036057 0.728721552490971 0.12218
0.1222 3.1470157739727 2.59318278073101 4.47585105416513 0.160985026434563 0.7534869798959 0.12219
0.12221 3.28898113202362 2.77990542694845 4.68724501934329 0.169167723057223 0.778237116511285 0.1222
0.12222 3.05057021311952 2.97032931052429 4.63434396670158 0.174941358847001 0.745905011157837 0.12221
0.12223 3.34148877636741 3.18731432175255 4.74280407519702 0.179016066431807 0.773407570403435 0.12222
0.12224 2.8775851805242 2.44536331978268 4.88117829985727 0.150788016497178 0.780715904756464 0.12223
0.12225 3.08832017118906 2.82425444125317 4.78618905428678 0.162163711194423 0.800509462004584 0.12224
0.12226 3.10863432913857 2.76107531301411 4.46830906150036 0.166446818070723 0.718796837773991 0.12225
0.12227 3.04794100255117 2.43174419621984 4.51098191743948 0.149403746772818 0.742986306835385 0.12226
0.12228 3.31804409398239 2.63682893541248 4.63412122226122 0.16944209302444 0.76147500217456 0.12227
0.12229 3.49298689726641 2.47150399148834 4.67408769572589 0.171413793525127 0.773904031371512 0.12228
0.1223 3.34464615827303 2.57493579473508 4.71528605752279 0.16037430708094 0.805762746930429 0.12229
0.12231 3.13073876505872 2.65299858858001 4.73153575311655 0.17401789394029 0.761547040143421 0.1223
0.12232 3.12639699128235 2.57100136490946 4.5011730694901 0.156703969787644 0.730851121796709 0.12231
0.12233 3.13682401194157 2.49510912965687 4.42110123992202 0.157894549560317 0.730276745502086 0.12232
0.12234 3.00036354813859 2.23911141646093 4.72462425600812 0.145672025325197 0.755519916770378 0.12233
0.12235 3.47284779414277 2.29587045124439 4.65728796138935 0.169901124579097 0.758242497363327 0.12234
0.12236 3.32641615789962 2.30577790665548 4.7772264546177 0.163400998265112 0.774990287341232 0.12235
0.12237 3.74100130789388 2.50793961071936 4.71993708654463 0.177094006604159 0.794116622196645 0.12236
0.12238 3.38130342447502 2.39231584850652 4.52386972170023 0.164397104998315 0.733132520912804 0.12237
0.12239 3.53821832804393 2.5528342501325 4.77483272029223 0.162493329438376 0.812802562618623 0.12238
0.1224 3.43492222015398 2.50056500364168 4.74973528491276 0.174317500714738 0.775922172766537 0.12239
0.12241 3.31359832697494 2.70963276695257 4.62514965658385 0.169502275716316 0.765709244658466 0.1224
0.12242 3.32069954474455 2.88385250272911 4.4754153463827 0.174817094664199 0.76043575322128 0.12241
0.12243 3.13921165663057 2.62888042071795 4.57014437527921 0.152929322058463 0.768060547729848 0.12242
0.12244 3.1742983077593 2.53042272080983 4.56401013248444 0.160427727456982 0.765197951174569 0.12243
0.12245 3.40151659488628 2.61768902786967 4.75249055596139 0.168337513638964 0.768980841697187 0.12244
0.12246 3.32299670046484 2.62273397851236 4.60204120808745 0.1723226814698 0.747643009815261 0.12245
0.12247 2.74849145287772 2.84464200147545 4.32957249530157 0.154809837393961 0.739669112877206 0.12246
0.12248 2.69096447553215 2.85575667917437 4.72094652107914 0.15667506378117 0.760807490458721 0.12247
0.12249 3.12528414518876 2.76316931904584 4.88291950692881 0.166866579941833 0.786325721147102 0.12248
0.1225 3.03417175786344 2.67560920016448 4.76454251957971 0.160934253922655 0.769530027016108 0.12249
0.12251 3.23682317127529 2.56300018594214 4.92912194174524 0.16598913222092 0.814165406838157 0.1225
0.12252 3.12200831405043 2.4492054100925 4.76466848625676 0.148080836254115 0.772192304580761 0.12251
0.12253 3.01517436019666 2.58407525224352 4.88835458057119 0.166524603761031 0.777552650185261 0.12252
0.12254 3.15160179427448 2.80248110624273 4.91618394686096 0.163418375133089 0.803157310588725 0.12253
0.12255 3.25640691294184 2.46507577945063 4.7736438100855 0.165464581881844 0.749020996601993 0.12254
0.12256 3.23177209813922 2.65287841267616 4.6341333572894 0.16774786996291 0.756229361565882 0.12255
0.12257 3.27162545432718 2.93491964914998 4.43034009818542 0.173195230559043 0.744741310820326 0.12256
0.12258 3.33603422822043 2.63778620944771 4.6259154106388 0.167174964716116 0.748536080698249 0.12257
0.12259 3.48716111402017 2.64250550205225 4.67602716564152 0.170692760543072 0.773345397739714 0.12258
0.1226 3.43217510599539 2.70758264444511 4.44790599296818 0.179010029113735 0.735080086128561 0.12259
0.12261 3.71574328463797 2.91147159180311 4.47223465539705 0.181643979358527 0.766149763763896 0.1226
0.12262 3.56983176590736 2.67380635993315 4.50212816862559 0.173770514240466 0.764691000688295 0.12261
0.12263 3.52479894473055 2.53231092876292 4.64150494771984 0.169726698790905 0.775817402861549 0.12262
0.12264 3.38218441574467 2.55454743803605 4.8859175823309 0.162536588963479 0.825264009567568 0.12263
0.12265 3.2100317850687 2.56604097807062 4.88845437241896 0.162558288239503 0.80802621805987 0.12264
0.12266 3.34822496858807 2.54296408066675 4.68058055163398 0.164697377417552 0.778077661888162 0.12265
0.12267 3.3798551184007 2.34324423515478 4.69026677509548 0.162728996205173 0.77802518894114 0.12266
0.12268 3.2425141824452 2.67278477333086 4.87439314068616 0.161464095393011 0.796770661286559 0.12267
0.12269 3.54245641847831 3.00214092396816 4.60704957146856 0.193773708898433 0.771391369202531 0.12268
0.1227 3.52525025749944 2.46959323119579 4.61368408036234 0.166628574617703 0.785948597825913 0.12269
0.12271 3.39806671029348 2.37700537837366 4.61067652584105 0.159519910231495 0.766757862059848 0.1227
0.12272 2.77804493071333 2.42977766722352 4.43320904926885 0.152743541415966 0.703722474969095 0.12271
0.12273 2.97562218940607 2.28818603954069 4.44598888040325 0.147336375441967 0.73660348362312 0.12272
0.12274 3.1224160174289 2.82936316286781 4.69995604705391 0.173270541645621 0.773775246398572 0.12273
0.12275 3.29068870459743 2.76986938157 4.68581791139212 0.182371887487639 0.742011964297915 0.12274
0.12276 3.06338494960224 2.67881152471278 4.58364987891689 0.16053240067812 0.769188757068268 0.12275
0.12277 3.04173794483862 2.32298284293769 4.59123243914476 0.150758465543078 0.754595579224661 0.12276
0.12278 3.25047710805191 2.62368354589228 4.69898083573916 0.163619640960089 0.772999153561595 0.12277
0.12279 3.12502654809151 2.74561151047264 4.75992864077861 0.168879538307064 0.790641569334478 0.12278
0.1228 3.35058340498687 2.7479635645495 4.99401614030025 0.169645240271749 0.794709448362316 0.12279
0.12281 3.16234849068413 2.86898401121801 4.72268645544078 0.167323970601308 0.767351449318979 0.1228
0.12282 3.03306222352192 2.79947785849456 4.77359468842874 0.164420741485916 0.787114531412145 0.12281
0.12283 3.1805955667759 2.88426887805101 4.75516634673535 0.178016297142951 0.776838358043265 0.12282
0.12284 3.39575556683037 2.34995488403687 4.5297923160882 0.161126358829035 0.735711657588733 0.12283
0.12285 3.62730306962666 2.63562240016817 4.55594333770402 0.176791950940865 0.775474884984888 0.12284
0.12286 3.45738094972256 2.43924936545046 4.64727437043065 0.16965796362019 0.772701216887439 0.12285
0.12287 3.30990063981347 2.45025981262535 4.44189126172947 0.167278750191395 0.73274503606736 0.12286
0.12288 3.38897312782249 2.67200752721194 4.43637935844402 0.179802907825049 0.739056734199417 0.12287
0.12289 3.3619104106765 2.45329674100161 4.48741711558608 0.1631760645184 0.756013816230038 0.12288
0.1229 3.16452689121441 2.06910663919151 4.61464161399707 0.145433780655163 0.751740737875698 0.12289
0.12291 3.66706419440569 2.10075946745648 4.70227877599061 0.164370609681809 0.781302969897081 0.1229
0.12292 3.94022661305559 2.49661556871706 4.79659138506673 0.175390079363762 0.82507851544063 0.12291
0.12293 3.98480560918514 2.78103666923418 4.65980356007179 0.192522503036628 0.806685410661469 0.12292
0.12294 3.64190871367731 2.65703671451041 4.76279937094267 0.176695171381873 0.800020886590935 0.12293
0.12295 3.44283385446812 2.42431813028961 4.72442892140252 0.167218688958662 0.794640355392029 0.12294
0.12296 3.14700896389124 1.97190677881083 4.79906683555676 0.143940593241858 0.770498827016164 0.12295
0.12297 3.62876883399312 2.28838942693425 4.63584663230804 0.163961586098834 0.772263035206371 0.12296
0.12298 3.63774924860756 2.36653157079858 4.65788376920739 0.167358151574687 0.770066739887599 0.12297
0.12299 3.65529020600086 2.66506876306908 4.51606973316016 0.173610464323426 0.774846451710222 0.12298
0.123 3.34796526082631 2.70699639423 4.38434370014107 0.175417336896582 0.72426991622229 0.12299
0.12301 3.49670917779895 2.57797456778497 4.33693475655373 0.16879827389381 0.73600578321188 0.123
0.12302 3.47656400704634 2.79308212252616 4.31113967318316 0.177516821283046 0.754646863659922 0.12301
0.12303 3.39784958632892 2.69624208826666 4.63792869175288 0.172802851670561 0.762856216582444 0.12302
0.12304 3.55982535665763 2.51828328351167 4.71807724346366 0.168894349331283 0.756009500654536 0.12303
0.12305 3.19313506895682 2.4494494433346 4.56582503346346 0.151978229856067 0.747710337104027 0.12304
0.12306 3.28389287356134 2.67427219182126 4.77368032838453 0.168955515443911 0.76967574735538 0.12305
0.12307 3.20675303963544 2.54874136790661 4.85111086540155 0.164265873686705 0.753479193766412 0.12306
0.12308 3.16090966937286 2.60532173078693 5.11728582656903 0.163759279204116 0.824880558502117 0.12307
0.12309 3.01111445133326 2.51870901458732 5.02052117529396 0.154465165863716 0.815479809677906 0.12308
0.1231 3.22372867389918 2.47058319088303 4.83107219200164 0.155321368003622 0.805338853471782 0.12309
0.12311 2.96158320656718 2.08963906009978 4.52947772744401 0.137146455168433 0.76265714412603 0.1231
0.12312 3.46831298555298 2.36756516733116 4.67442950813864 0.166734969584966 0.769209728156617 0.12311
0.12313 3.28267252088329 2.52310069031294 4.79632076961602 0.156990924180224 0.790853843064679 0.12312
0.12314 3.41703432467124 2.84990876034327 4.89251397811158 0.177156402520403 0.797425683707657 0.12313
0.12315 3.24196217802684 2.7623550045726 4.73169808734006 0.165644440942404 0.766604386692898 0.12314
0.12316 3.45020609304588 2.57185005119963 4.49263590631638 0.174408649869669 0.755384864116447 0.12315
0.12317 3.54683797792492 2.66749049463865 4.40624212662439 0.173710280367672 0.758350689371979 0.12316
0.12318 3.39790075624316 2.43917538094253 4.42553745285064 0.167908363439438 0.7158752787239 0.12317
0.12319 3.15260107061376 2.49755875431892 4.51121828018198 0.156400214021866 0.738986420322347 0.12318
0.1232 3.49884116356934 2.77786329143525 4.69613414945728 0.174551028823115 0.79822204174746 0.12319
0.12321 3.49569663497498 2.5357785013266 4.59848109260971 0.171463819140691 0.739013972733299 0.1232
0.12322 3.40098318411023 2.60012831504439 4.64510359539093 0.166622799452778 0.777224465513379 0.12321
0.12323 3.71719602157395 2.86154377962967 4.91838128399427 0.189277450997064 0.808432247565526 0.12322
0.12324 3.4174949806605 2.88928892313192 4.79710929921422 0.180791825183892 0.780112014251704 0.12323
0.12325 3.59332377584721 2.61691570083661 4.81591256023954 0.167824418140892 0.809995567213874 0.12324
0.12326 2.99522886592832 2.54257249242535 4.62715601975875 0.154888175908933 0.762081180850411 0.12325
0.12327 3.23387167656962 2.49480816003209 4.40507380703005 0.16636411576769 0.76223793055287 0.12326
0.12328 3.20104949770347 2.70756045124372 4.68070347176236 0.168241208970745 0.758473736851826 0.12327
0.12329 3.29585471336067 2.83949487636389 4.76929783943828 0.166721236577043 0.796146564670492 0.12328
0.1233 3.36532808649372 2.62445884581898 4.72201138839452 0.161305272118288 0.783729258562536 0.12329
0.12331 3.53536494531381 2.41875663575613 4.63308034706543 0.174069598207761 0.752918272575903 0.1233
0.12332 3.06002154878252 2.36542193453892 4.77075858253914 0.150086252331633 0.783483614427397 0.12331
0.12333 3.19951431117368 2.69302302689179 5.06441176702363 0.169297527344225 0.801056155960923 0.12332
0.12334 3.4970557969296 2.52856429031622 4.85232118240184 0.167854487045312 0.79107685753507 0.12333
0.12335 3.26576108414783 2.78314217514139 4.87142651069995 0.174687295925879 0.802912124904363 0.12334
0.12336 3.25359927125233 2.87367047464901 4.66371768129829 0.170133191403925 0.77037187952002 0.12335
0.12337 3.06223810560163 2.61802776772912 4.45444540670455 0.162907303396605 0.759201870321959 0.12336
0.12338 3.1150964304798 2.60461486402937 4.78278582661919 0.160725247217055 0.784355510957992 0.12337
0.12339 3.47708163104212 3.08993492219778 4.65480802244674 0.191219874346637 0.791648809995096 0.12338
0.1234 3.45512839833181 3.15731295172647 4.54042844279069 0.190075053137985 0.770594934345839 0.12339
0.12341 3.26786389877729 3.04633140013649 4.60289051055791 0.173803420570407 0.757530049951696 0.1234
0.12342 3.34885842149755 2.64212926173571 4.74283804251342 0.170309019796861 0.779382790786395 0.12341
0.12343 3.03098882593853 2.25490026638645 4.89068590944814 0.15347649649979 0.763633679327742 0.12342
0.12344 2.95130850735652 2.45530664182049 4.86045174179729 0.151928777802682 0.787472275501499 0.12343
0.12345 3.02300451147136 2.72696572514442 4.90448751081331 0.158491420396158 0.804082572715357 0.12344
0.12346 3.6184576305091 2.70365317384023 4.70573492999422 0.17923207536836 0.815467264123912 0.12345
0.12347 3.50186119859658 2.41863011922515 4.78820243521053 0.165763898508241 0.791017856705091 0.12346
0.12348 3.63094278860632 2.796878824855 4.89083205838439 0.186732860895275 0.807075102961612 0.12347
0.12349 3.42375732540178 2.66683300996632 4.75471663475938 0.168782440615478 0.799623487984524 0.12348
0.1235 3.35972163269189 2.54416554203951 4.74507762683193 0.161730203650759 0.749187169322488 0.12349
0.12351 3.30221200478901 2.44360669894768 4.63242588090617 0.169828938385242 0.769263340787653 0.1235
0.12352 3.44115232894654 2.66168127246642 4.61999056260026 0.171918893639929 0.764999454648531 0.12351
0.12353 3.14366575818706 2.39265393890809 4.73214397747205 0.159423502959077 0.735029292743946 0.12352
0.12354 3.34238483669745 2.74845303931125 4.51887956008393 0.168024902595571 0.761533320993953 0.12353
0.12355 3.31588566537906 2.71394219908811 4.77932333347978 0.166735381977469 0.779962780587257 0.12354
0.12356 3.6631623429283 2.6540816034814 4.73991498988865 0.181430091867891 0.794547240642384 0.12355
0.12357 3.40067327730361 2.80494996508546 4.93371138996037 0.169807599265315 0.81387877188065 0.12356
0.12358 3.19898510392735 2.52162679866704 4.8236733861337 0.161671749130807 0.765901534588985 0.12357
0.12359 3.58298560142612 2.71473997052379 4.76658805543271 0.177394722569554 0.798175918326986 0.12358
0.1236 3.17324074904948 2.77627855975281 4.72275748342383 0.166973655890033 0.772195881758023 0.12359
0.12361 3.40973501471534 2.72272861163085 4.76452424105793 0.172329261061056 0.789051330117075 0.1236
0.12362 3.45436352105555 3.04248074683874 4.84585387430263 0.177570720580366 0.799965740978382 0.12361
0.12363 3.2441243940452 2.83130143387601 4.92762687943256 0.169881506673374 0.808840688689674 0.12362
0.12364 3.2734832677702 2.70113135633994 4.71741538451274 0.173881465008168 0.781114055157616 0.12363
0.12365 3.3159700881536 2.71689750051798 4.75091022419103 0.166497689335342 0.786747550234754 0.12364
0.12366 3.03500072541068 2.83432266610212 4.56743160449906 0.163115608761451 0.736370820272411 0.12365
0.12367 3.04551014372429 2.84082009962375 4.59292860019157 0.171200810542845 0.753165821010779 0.12366
0.12368 3.20344740030795 2.77478566991645 4.74289316052709 0.167931941701263 0.795510182264288 0.12367
0.12369 3.34545881765493 3.0005605487814 4.68059348921747 0.180759077160255 0.779690530153992 0.12368
0.1237 3.24779788208547 2.87451479549029 4.70123300321325 0.172112777974231 0.803076585325292 0.12369
0.12371 3.42403255557972 2.7570967141144 4.69340025491043 0.170131745490355 0.780331330189129 0.1237
0.12372 3.23843334917915 2.57548298131371 4.7154178363425 0.165822870056037 0.765479199795401 0.12371
0.12373 3.24186528113189 2.3869782026451 4.81748515720632 0.164144153268941 0.787518097307663 0.12372
0.12374 3.59103031886792 2.62943822990679 4.86714999481312 0.17556506094728 0.778656191040862 0.12373
0.12375 3.37666414555556 2.70093735277801 4.48323859871777 0.169820819477359 0.775296937866654 0.12374
0.12376 3.59606863317083 2.65735421230487 4.54130256184033 0.178958842194217 0.76297039885647 0.12375
0.12377 3.4935343491333 2.51887435598425 4.564843963135 0.165702142266546 0.744711099440736 0.12376
0.12378 3.68903579077813 2.42156532461471 4.79635988308107 0.170721328922759 0.785729785191597 0.12377
0.12379 3.61685588265644 2.78420333545927 4.7406200231697 0.183622360728377 0.800101570212933 0.12378
0.1238 3.75905525739973 2.70786537015364 4.66640588687296 0.178336520617263 0.792385666797241 0.12379
0.12381 3.56846706823544 2.80872048852548 4.80809333271358 0.183923808923531 0.772722439954871 0.1238
0.12382 3.53570876765692 2.58963735513881 4.78872241927743 0.170012501226406 0.78923496044695 0.12381
0.12383 3.52017022056596 2.32123990496297 4.72643856539245 0.1633101741293 0.788131969719393 0.12382
0.12384 3.57809134563992 2.19830756073869 4.86839557570072 0.154448832851385 0.804633895211925 0.12383
0.12385 3.30888056882565 1.8969312977759 4.62250752124402 0.145753499599355 0.780955077366738 0.12384
0.12386 3.48764693165113 2.32924260627519 4.97850537507012 0.1648348203863 0.797512753606679 0.12385
0.12387 3.48069854654351 2.59400469066156 4.7924334262873 0.177646314974227 0.803636527414922 0.12386
0.12388 3.66754748082539 2.70983103605166 4.73733913777329 0.182862014310284 0.780977149581706 0.12387
0.12389 3.2111639119784 2.92214762231442 4.54751847184108 0.169249619364852 0.776737664381165 0.12388
0.1239 3.37484950051783 2.62089002428741 4.68132903116152 0.183534270672927 0.76646962696319 0.12389
0.12391 3.5838832246677 2.47212819131419 4.65776322286041 0.166627392070815 0.788040122751227 0.1239
0.12392 3.49978846082384 2.26543048441942 4.60798359008835 0.160674663817615 0.769461569551585 0.12391
0.12393 3.41029477771924 2.456227103158 4.63776207650142 0.167545854835103 0.775225310483621 0.12392
0.12394 3.55844775311857 2.75364903516954 4.65068093287747 0.164260031636444 0.805144577605997 0.12393
0.12395 3.62594740442965 2.53414840855594 4.74877776264221 0.17370629904478 0.778030497590449 0.12394
0.12396 3.63197558048479 2.80597595764959 4.4330306698613 0.180377630007083 0.753433504294516 0.12395
0.12397 3.26362333233951 2.81698506777605 4.74350752607667 0.171204289141817 0.777394293726082 0.12396
0.12398 3.15029637215417 2.66393435346886 4.60980083608787 0.162869075227181 0.747681687715918 0.12397
0.12399 3.26175598130186 3.00019612591111 4.67176701417337 0.176080552634294 0.783713888106605 0.12398
0.124 3.48985029560357 2.82904752121221 4.92997216714534 0.17836983067976 0.79754481609515 0.12399
0.12401 3.82409457656753 2.86860737497083 4.91048774119128 0.183800904318558 0.832631599640679 0.124
0.12402 3.93040526433639 2.64286032089454 4.84628949758935 0.18718227644785 0.797353555290242 0.12401
0.12403 3.65841267566478 2.37248359975869 4.68312797180967 0.171782838280652 0.789599705463399 0.12402
0.12404 3.21624983204346 2.48000471579221 4.59429664702741 0.154905544108393 0.774434424969387 0.12403
0.12405 3.61880805309485 2.72806281653302 4.79295935154224 0.181629207555038 0.799710632765804 0.12404
0.12406 3.36671617818115 2.80516385533161 4.83396581700095 0.167605045701847 0.80687697681414 0.12405
0.12407 3.48564672641214 2.75755682892703 4.89002258569635 0.17468541273081 0.807097620077614 0.12406
0.12408 3.56245466320506 2.69679070378649 4.76045900140204 0.178014779866166 0.788697250502157 0.12407
0.12409 3.44668128487529 2.55014859077644 4.67624518106214 0.165052299808912 0.788226149423967 0.12408
0.1241 3.54934868501519 2.39752330052136 4.62065224837431 0.167302914852912 0.778233540220936 0.12409
0.12411 3.64551940576255 2.51197844795806 4.58082115599013 0.180181989488174 0.770220934545914 0.1241
0.12412 3.61703314029473 2.71657334862981 4.65565207058681 0.179629568438617 0.786892988944384 0.12411
0.12413 3.43633281710583 2.42899843167219 4.8832151487576 0.163898454093014 0.818438888688593 0.12412
0.12414 3.23197778711936 2.86926612526957 4.80071029634222 0.168540197573158 0.790561108372296 0.12413
0.12415 3.18890839535908 2.97826958897436 4.73246620440009 0.176754791769 0.779749790719793 0.12414
0.12416 3.19300065470521 2.46566349458324 4.90811910917745 0.157913517736748 0.803802356131913 0.12415
0.12417 3.36077977187234 2.8670592178012 4.72810185768438 0.17408225525606 0.777893119109822 0.12416
0.12418 3.23697878429754 2.30654029009063 4.77923792064579 0.150136375155921 0.791871389516015 0.12417
0.12419 3.33857516942066 2.71969746538856 4.65474319757617 0.166546035562868 0.7749898649224 0.12418
0.1242 3.23913810077449 2.5987141067752 4.64075187212449 0.164043404545075 0.750911649151309 0.12419
0.12421 3.45177024736513 2.41574699514925 4.73431699499614 0.162207602505305 0.785570037663047 0.1242
0.12422 3.30862780081639 2.86682895265735 4.93308469435038 0.177388820942423 0.802225952246395 0.12421
0.12423 3.64121518286285 3.1498085781113 4.95091596706072 0.186452201753314 0.830136838184045 0.12422
0.12424 3.2800889882096 2.8320945993175 4.91467128916067 0.171774594744387 0.816975823334703 0.12423
0.12425 3.18512228426529 2.63570598289256 4.86229980014828 0.164571439003817 0.796439063528325 0.12424
0.12426 3.61344782256797 2.74344266628366 4.73542553176817 0.181210082856756 0.813925798120702 0.12425
0.12427 3.73527919499479 2.72834066605313 4.77410943829417 0.180827261054412 0.797398462258625 0.12426
0.12428 3.62703878983478 2.6547856895969 4.85245407179262 0.178136253100076 0.800891763202872 0.12427
0.12429 3.35352060568992 2.75434629653669 4.72610020328378 0.162615455722341 0.805997157837604 0.12428
0.1243 3.53846388723929 2.80152171975465 4.71145322967449 0.176456302099142 0.779434656335317 0.12429
0.12431 3.50046061998413 2.72457563528169 4.74294005638993 0.174611863682003 0.794755782538818 0.1243
0.12432 3.24664316421226 2.73770007578729 4.69791455018661 0.168695124617217 0.781290356505691 0.12431
0.12433 3.63009536637546 2.59307541484653 4.64041034081664 0.173216003606656 0.757785973267401 0.12432
0.12434 3.44715572313619 2.70561794615923 4.58568632580091 0.173676426284385 0.745224851552153 0.12433
0.12435 3.55242366010295 3.03811413563851 4.67037821457653 0.187434787270935 0.797951480203928 0.12434
0.12436 3.62225256433499 2.95302799534154 4.94557892431301 0.186724863333706 0.81729807397302 0.12435
0.12437 3.27210503336059 2.69262143452044 4.77661432377041 0.159625667554748 0.80315738079353 0.12436
0.12438 3.16512697242671 2.72943675151555 4.86614972134534 0.164763528238133 0.771306049254407 0.12437
0.12439 2.94906789410416 2.77786345236864 4.789745639835 0.162178150842265 0.776954747247051 0.12438
0.1244 3.24967335403777 2.66781822303407 4.87095113788782 0.161053884329755 0.790528326531451 0.12439
0.12441 3.40575269585957 2.77359270306908 5.1040826341355 0.167980564004577 0.834292733831123 0.1244
0.12442 3.37398694150477 2.67517004703334 4.83282285173538 0.157639508644698 0.811293603535114 0.12441
0.12443 3.47309010682731 2.64335746663636 4.85177914695577 0.168598361860859 0.831708263320946 0.12442
0.12444 3.0240954822968 2.56071829657463 4.71757910881637 0.157308237975765 0.767279794463849 0.12443
0.12445 3.22665364398045 2.64002500381085 4.74489482977757 0.16479262229692 0.771783971585306 0.12444
0.12446 3.13563587010026 2.72947044302896 4.95513604669935 0.165793758398663 0.795887937474078 0.12445
0.12447 3.28833659003222 2.75716483767057 4.82632822344843 0.172662391705402 0.796553047677959 0.12446
0.12448 3.43832396131942 2.76487825418158 4.54080423633397 0.17192751079502 0.789504634455105 0.12447
0.12449 3.33399478317497 2.49973895070289 4.7289827842008 0.158989099038515 0.798372739384676 0.12448
0.1245 3.41374787671894 2.47786896318377 4.61345867696395 0.167824090709882 0.751034375308976 0.12449
0.12451 3.60332857005452 2.71169720614473 4.67833489690005 0.176937362052964 0.801446938371064 0.1245
0.12452 3.29303013468511 2.64635834940878 4.88313763105747 0.169832358419703 0.801781337844828 0.12451
0.12453 3.40373836759252 2.75673706086021 4.940229735012 0.171553912135253 0.804799279267643 0.12452
0.12454 3.30128890466189 2.90649817025127 4.87268357982937 0.168285940459036 0.810609663179415 0.12453
0.12455 3.65794728006575 2.80165352337296 5.05809141419128 0.177314548313833 0.850623519668809 0.12454
0.12456 3.28512582405539 2.55479276728787 4.93192771347909 0.170963183091924 0.801734324682705 0.12455
0.12457 3.62600148190049 2.76394959823408 4.8878527808168 0.181839119407244 0.813215437785837 0.12456
0.12458 3.66229372027746 2.75835974157598 4.81384019377417 0.176929892869534 0.816175501890708 0.12457
0.12459 3.45169053897798 2.80885934350394 4.67422852408774 0.175815413312636 0.773232490840185 0.12458
0.1246 3.44632363679267 2.75229529046333 4.82781917584745 0.17617440299899 0.799331879524541 0.12459
0.12461 3.34703658302257 2.82979833113966 4.71599821923774 0.170771511532768 0.800727858683836 0.1246
0.12462 3.31388071854441 3.00784830999925 4.57609666826208 0.171322350147212 0.77662045560026 0.12461
0.12463 3.6726689401483 2.97014545864746 4.61306955166305 0.18651625336753 0.794729582800011 0.12462
0.12464 3.885995083718 2.69121722727225 4.77179400850562 0.18219434200356 0.834940126449081 0.12463
0.12465 3.76252947416626 2.91226130962435 5.07034182271717 0.186495771552997 0.854428033861511 0.12464
0.12466 3.33311448876986 2.22394217694403 4.90171171548219 0.154692575100851 0.805999749549411 0.12465
0.12467 3.15326878261685 2.42156340065268 4.92225525914853 0.154663345338567 0.79643676596966 0.12466
0.12468 3.14606370507052 2.27908585617655 4.87131178835461 0.150527132414105 0.787291702045382 0.12467
0.12469 3.24179895061118 2.52139449225993 4.68556716717943 0.16345526596617 0.789120111145245 0.12468
0.1247 3.4754121095396 2.82536579549543 4.75516628908984 0.16966882710128 0.79588035642473 0.12469
0.12471 3.89475412384118 2.72774832633189 4.78624764114884 0.189106776438322 0.790704079202796 0.1247
0.12472 3.73705265504163 2.78874730567885 4.5706556413409 0.180678258636529 0.783925910215787 0.12471
0.12473 3.62295564336202 2.89020188798573 4.66341284074857 0.186346775402046 0.802579278901593 0.12472
0.12474 3.2785137598551 2.40221305268047 4.93933864618515 0.163065207916626 0.789528480726383 0.12473
0.12475 3.42506394560305 2.3459443082798 4.79347910776953 0.160948167378894 0.794002527344191 0.12474
0.12476 3.33486033664151 2.54438007184021 4.88768609125219 0.16026591566372 0.795420046320944 0.12475
0.12477 3.6518997593788 2.71615953524116 4.7307464119806 0.176508284529312 0.79559423859208 0.12476
0.12478 3.51059604766345 2.55186462278528 4.7699441085352 0.168754076164401 0.773305314621227 0.12477
0.12479 3.18633820915395 2.63730191029778 4.76860715938587 0.164760514625328 0.780111168016625 0.12478
0.1248 3.54912346753639 2.64491502633637 4.96726418388143 0.167906376887836 0.834307556954474 0.12479
0.12481 3.76836184891394 2.77203358744213 4.94675767367344 0.182731890864755 0.818806243811356 0.1248
0.12482 3.94964098602664 2.72045873993821 4.87623227411105 0.18704755414557 0.821835404570252 0.12481
0.12483 3.91971881281544 2.62046365931223 4.77283950802661 0.184764842159219 0.779091873659454 0.12482
0.12484 3.57052981760954 2.9639400995192 4.61889606050162 0.193424608737545 0.778848265068349 0.12483
0.12485 3.39451053050225 2.97637817720453 4.69220073439782 0.18494450331133 0.760318230328104 0.12484
0.12486 3.50588193352861 2.6752197440482 4.80083889804832 0.169606074480953 0.803665233471874 0.12485
0.12487 3.18190678577937 2.6382897538505 4.72534551635073 0.163225655469472 0.787613692430585 0.12486
0.12488 3.42594711305878 2.69291532978019 4.82628989010312 0.169277199259715 0.788239262575657 0.12487
0.12489 3.53630850559661 2.61666326980424 4.71158378053529 0.169451826407536 0.802412217758181 0.12488
0.1249 3.69019328663885 2.86382021378493 4.61809269735841 0.176725499700741 0.794296127676342 0.12489
0.12491 3.49723311363343 2.68962632495658 4.65740357522622 0.171047229995702 0.782267779506131 0.1249
0.12492 3.41136860810917 2.97312812707754 4.65005588686834 0.180185246209129 0.78504720310004 0.12491
0.12493 3.58299534307035 2.71570320792901 4.73289332411744 0.165094008131774 0.802705064640244 0.12492
0.12494 3.5315228892078 2.96800785967121 4.71312981054915 0.183723578784222 0.784695883744241 0.12493
0.12495 3.25726131844381 2.86856445206004 4.79750804209941 0.165274339108345 0.807450915361698 0.12494
0.12496 3.63580763248647 2.80308004390215 4.94730657827548 0.179585852339332 0.824356840710058 0.12495
0.12497 3.63141091555019 2.54480842327792 4.88241016628055 0.173940411632633 0.801060058069862 0.12496
0.12498 3.62825312388268 2.40385541015705 4.89855211028453 0.169041914208213 0.798555185734763 0.12497
0.12499 3.33668553373806 2.27387119244892 4.97898820799412 0.158574317907846 0.810774450939842 0.12498
0.125 3.45689346987373 2.41104712285613 4.88326047937788 0.161078989316993 0.785329766782509 0.12499
0.12501 3.68288122897652 2.61349808484371 4.79728533923028 0.183424219673614 0.810708305154481 0.125
0.12502 3.65326326558659 3.06444386477015 4.9096919874922 0.18318365747287 0.844158089485368 0.12501
0.12503 3.61388004520968 2.54936106681687 4.67810329856592 0.180484012584341 0.761489474020771 0.12502
0.12504 3.40492767477105 2.61629384574935 4.76542482522908 0.168147012256499 0.791525301362071 0.12503
0.12505 3.72324639130846 2.63784341206311 4.85924830971085 0.175274626101854 0.811757656470067 0.12504
0.12506 3.28745416392008 2.59004577690256 4.63533319444191 0.170600196474046 0.784823636541331 0.12505
0.12507 3.72682314487663 2.75975529934375 4.75791479542038 0.187582085460478 0.774512292999721 0.12506
0.12508 3.30947951457832 2.74067851112386 4.62374938608085 0.169525688774084 0.779830960118593 0.12507
0.12509 3.10181206094842 2.71251784532948 4.91255088120592 0.158014460656572 0.816407067534594 0.12508
0.1251 3.39277198324386 2.52691052422092 5.04904412870948 0.173011475290945 0.810273992563996 0.12509
0.12511 3.29137994834175 2.75879089432457 5.04163327017347 0.167472480242367 0.819080875484959 0.1251
0.12512 3.56579780319936 2.79828726840893 4.95161143568771 0.178931688413328 0.814673315055788 0.12511
0.12513 3.47164119797361 2.91632639904943 4.96147752153807 0.177206630102814 0.803708279453796 0.12512
0.12514 3.46170310178317 2.75272230153129 4.76357189310148 0.176018942230029 0.817865623028643 0.12513
0.12515 3.67402950556673 2.81346908857968 5.04373199309446 0.170999906298432 0.824747065345643 0.12514
0.12516 3.3563185551101 2.9115973953171 4.81220227522957 0.176243010015834 0.787422181100269 0.12515
0.12517 3.31316861966264 2.64794235604975 4.86381045561549 0.165566068401834 0.77400329014897 0.12516
0.12518 3.64240924572271 2.82570891964893 4.73690969551817 0.184535437941596 0.799722390565263 0.12517
0.12519 3.70310585888634 2.89335907017696 4.80342818821941 0.182295857667973 0.824343778431336 0.12518
0.1252 4.09908010441006 2.92412789420806 4.67240004407663 0.197326075477516 0.816258898160721 0.12519
0.12521 3.68709187518962 3.07005753404726 4.8735705315439 0.184243401041748 0.805258094537233 0.1252
0.12522 3.33477165894847 2.7824137090051 5.04226187981301 0.16554747489272 0.825889291495836 0.12521
0.12523 3.2622160147006 2.71833376196269 4.98896627687836 0.171582190640896 0.811572435492062 0.12522
0.12524 3.12217424962685 2.62451294239382 4.9550139211315 0.154484329586002 0.804416624335203 0.12523
0.12525 3.48742076493584 2.52937554059968 4.989333350335 0.175404385761885 0.815990908700969 0.12524
0.12526 3.79719388929397 2.7827816451629 4.76359919026674 0.180784057568535 0.785604136219421 0.12525
0.12527 3.65345891268581 2.99926070818321 4.80913567653567 0.188485566764116 0.794057686271117 0.12526
0.12528 3.5415715090967 3.05824140575565 4.92991385556722 0.18068691592129 0.831996382774512 0.12527
0.12529 3.20495524615963 3.02743260051002 4.9085922919616 0.184719505202001 0.795461056872581 0.12528
0.1253 3.29683237267675 3.19905905423782 5.03634051610642 0.184722198126581 0.828598061200681 0.12529
0.12531 3.45903559737087 2.96044333591827 4.87018490766976 0.181096539456184 0.791945803585901 0.1253
0.12532 3.271942466107 2.75932600754673 4.86414831864607 0.165234829698758 0.804841688263851 0.12531
0.12533 3.47454435809062 2.76696166984858 4.85860117046848 0.170657505214984 0.78760510679981 0.12532
0.12534 3.20560073022942 3.16751985582942 4.83565691111257 0.178233715079265 0.819848534511267 0.12533
0.12535 3.39774193750646 3.00195737353822 5.04172225959888 0.184480437476391 0.817010364873598 0.12534
0.12536 3.0596715574139 2.62501581150187 5.02947942693372 0.165349729969971 0.809639474419634 0.12535
0.12537 3.10159409403972 2.73725358735706 5.05522492792552 0.163419691454597 0.831083555285472 0.12536
0.12538 3.54536836247511 2.68248961670491 4.86936091570373 0.177127002345248 0.804272875215104 0.12537
0.12539 3.60199164356974 2.749940012443 4.88659558565001 0.172283147842601 0.803724540969808 0.12538
0.1254 3.12684774364805 2.45853449873504 4.77694611358667 0.152584685176653 0.791263271855207 0.12539
0.12541 3.36275698743257 2.74734003780855 4.84668015628575 0.169500368657332 0.80413927183997 0.1254
0.12542 3.45520137728827 2.66706306984449 4.72392613073168 0.170579761451926 0.780054362931925 0.12541
0.12543 3.72051581782638 2.82921544667219 4.79387499688479 0.183615176824735 0.807830356478635 0.12542
0.12544 3.36814942599444 2.64807523569813 4.96650189902211 0.169409895038291 0.81608386214396 0.12543
0.12545 3.49576756432578 2.67333874264324 5.00370743037096 0.170211547218325 0.812627272157304 0.12544
0.12546 3.35491116803785 2.82873230127402 5.06427417659083 0.1698432805706 0.818382314063725 0.12545
0.12547 3.56130805805611 2.94941573112985 4.89676936377707 0.185177045211259 0.80756453108312 0.12546
0.12548 3.70016724179802 2.81501464950167 4.96519528658046 0.188838737160381 0.83433676120023 0.12547
0.12549 3.51350690839315 2.86156526573989 5.1849648239339 0.173074821435092 0.848204678477755 0.12548
0.1255 3.36662140324857 2.58821678336542 5.00187785439109 0.170405243639929 0.800080595058745 0.12549
0.12551 3.44146327651047 2.79925278549347 4.83573299521818 0.173481410155266 0.797099988253343 0.1255
0.12552 3.33650793272687 2.75081795162785 4.80156073045997 0.175620757184205 0.797686776400792 0.12551
0.12553 3.67383683466003 3.05413297293835 4.69649498888772 0.19174385139878 0.792225546779313 0.12552
0.12554 3.41375915553985 3.26594029249189 4.61154168523742 0.19013478346121 0.791976608718057 0.12553
0.12555 3.48836668448024 2.72052455243512 4.84640322847202 0.169890311674731 0.836308105688848 0.12554
0.12556 3.20309915798806 2.68193421534551 5.07434031478547 0.156536062744613 0.809307480405339 0.12555
0.12557 3.57488852162299 2.63589764283203 4.9894149683192 0.179754732452374 0.813286938083638 0.12556
0.12558 3.53799829335921 2.88882892932631 5.01832658610244 0.176402221718661 0.830160591637453 0.12557
0.12559 3.47840779975567 3.15661034477414 4.6286855473807 0.193748098079057 0.783433959860593 0.12558
0.1256 3.67508067970137 3.03487700718184 4.87707573306865 0.189937800345727 0.820534473673833 0.12559
0.12561 3.47048286545802 2.73565291846289 4.6862871837163 0.174022012502047 0.788974337157083 0.1256
0.12562 3.49251026616372 2.87945469365056 4.96039877804816 0.186124704313395 0.792883104203096 0.12561
0.12563 3.37138311575167 2.66051625186005 4.96161038541813 0.167273760805054 0.786331131241844 0.12562
0.12564 3.59223096218361 2.8380322095764 4.82218017302817 0.179247334341525 0.795504764271506 0.12563
0.12565 3.42031360601676 2.57005061450542 4.75604783804745 0.171142923429404 0.801940181995913 0.12564
0.12566 3.68342351668109 2.69521492744771 4.82560925661779 0.171168083004003 0.822960818597166 0.12565
0.12567 3.5534570489702 2.59725763427566 4.87456966647276 0.172250095825608 0.783204731319825 0.12566
0.12568 3.68987397054692 2.9987060216964 4.88326764080788 0.188810264531479 0.831837308701815 0.12567
0.12569 3.76317357563618 2.96169860418062 5.02212663294407 0.182394672739518 0.83958491560342 0.12568
0.1257 3.79841717807038 2.66841403059763 5.06909569342667 0.183062727828531 0.812256736028188 0.12569
0.12571 3.50751185650853 2.66873126180267 5.06215450468401 0.167591521757089 0.842864933618397 0.1257
0.12572 3.53196570235167 2.46410520448774 5.12910008776551 0.163141638329983 0.854614583495418 0.12571
0.12573 3.73631340282661 2.84120374231351 5.09663986611983 0.184275078852604 0.827757548806508 0.12572
0.12574 3.85083303929389 2.70471736671236 4.95535499381903 0.187780145994611 0.841645849609906 0.12573
0.12575 3.58348290202474 2.74698225174742 4.97218248706363 0.178797668704848 0.813426580110066 0.12574
0.12576 3.38059263482174 2.49270740906889 4.87048767044765 0.174338531012951 0.773495036324121 0.12575
0.12577 3.39690031527485 2.88497473814412 4.81009007687999 0.171606486752631 0.813134697666204 0.12576
0.12578 3.79056315779604 2.58686002496268 4.82699646502053 0.189671231237607 0.791800087095759 0.12577
0.12579 3.53219349421008 2.71699863020454 4.82837230491868 0.169458530207902 0.796256487028553 0.12578
0.1258 3.5762479579785 2.67707350254515 4.81292317725786 0.179254162837627 0.800505355438291 0.12579
0.12581 3.69712616005152 3.01319648690444 4.86714493286193 0.186993605814848 0.82056267482205 0.1258
0.12582 3.47846052853623 3.13720842115095 5.02816212574261 0.189715033234875 0.840681140181164 0.12581
0.12583 3.57610114170043 2.96050133488115 4.93552610553662 0.187698087747651 0.814537262377053 0.12582
0.12584 3.47053350370645 3.23448202238305 4.88712241638953 0.19031635691859 0.840522146309944 0.12583
0.12585 3.47526951238018 2.98068498195671 4.91691574721015 0.183113926329128 0.801509810327764 0.12584
0.12586 3.35766312574989 2.75300280114599 4.97066039210584 0.173083490457793 0.819086856073289 0.12585
0.12587 3.41082043845192 2.87292566759786 4.94387443876085 0.179303990872583 0.823135078196014 0.12586
0.12588 3.46138408758773 2.99913320840499 4.76606214169187 0.182784986313758 0.785275085750632 0.12587
0.12589 3.59177759666972 2.95009243531772 4.73174478875404 0.183052204471535 0.804889457416349 0.12588
0.1259 3.55314557680911 2.85618921693752 4.85043790980667 0.173086558068665 0.813691323291886 0.12589
0.12591 3.34782327257936 2.62946735206436 4.99295784192289 0.168028263864891 0.807790504175051 0.1259
0.12592 3.62933939648291 2.7341658970546 4.92315162849146 0.175593160949198 0.814453668371593 0.12591
0.12593 3.70483307576911 2.98828116217946 5.01201190426416 0.191070769632782 0.816529464912879 0.12592
0.12594 3.45526597566171 2.91456559555875 5.00383889321044 0.172790078061245 0.844426832386405 0.12593
0.12595 3.56525327570016 2.51402488399036 5.16915077637425 0.174914896969866 0.83933821016012 0.12594
0.12596 3.73258015633631 2.31484187553899 5.11600496676344 0.177055368789469 0.830430442737602 0.12595
0.12597 3.60617133385122 2.59643086916886 4.89427073188445 0.170073966493351 0.817523612852025 0.12596
0.12598 3.79947715487084 2.59944513730762 5.02872881830486 0.180070071141499 0.817921819886693 0.12597
0.12599 3.70201668195799 2.60944068654743 4.75829417936155 0.178670472840647 0.783782798119679 0.12598
0.126 3.26211770268025 2.62521930645629 4.75979450473699 0.165132769577183 0.79041730418565 0.12599
0.12601 3.66988377776046 2.87159663777077 4.77797883572508 0.188898645618541 0.776473255333264 0.126
0.12602 3.53588921076804 2.78625861277526 4.72091549276686 0.17980149629017 0.798633867694359 0.12601
0.12603 3.57181924723807 2.95637522758457 4.90012836199437 0.185248602886537 0.824167770250645 0.12602
0.12604 3.84999051139181 2.94449459283958 4.99452152752061 0.177364841852479 0.808706516395777 0.12603
0.12605 3.41726665844019 3.18938675498687 5.05919393777646 0.189982727116074 0.806452942810719 0.12604
0.12606 3.39281965223545 2.95405507074161 4.77412151840452 0.178711409945017 0.799601114292373 0.12605
0.12607 3.27377467475499 2.99985644169855 5.02713474379269 0.174569916146744 0.826698958666885 0.12606
0.12608 3.33658340627691 2.71651626669039 4.92515324760375 0.166527647440043 0.819984467143523 0.12607
0.12609 3.30924305691779 2.79289578558947 5.08035415861712 0.167319343472623 0.826832813592552 0.12608
0.1261 3.32180275209447 2.96813730956983 4.91472948680449 0.176192653408824 0.830526566197902 0.12609
0.12611 3.35805691711122 3.1782657100417 4.85115120109817 0.183216866870878 0.800320243654887 0.1261
0.12612 3.18342069600245 2.97942655303987 4.91879304113997 0.171380446668514 0.818256066959887 0.12611
0.12613 3.30416320890386 2.93876829486033 4.9828142373427 0.178071176968306 0.825070714207576 0.12612
0.12614 3.0707657252017 3.21021974860569 5.01518829398313 0.179980909772247 0.846241239390663 0.12613
0.12615 3.62162617710979 3.19891893399983 5.11134881531733 0.194040225958451 0.820465500019021 0.12614
0.12616 3.41847359707242 3.35291998712861 4.8737995881232 0.194858510834541 0.842324447299668 0.12615
0.12617 3.56358894359882 2.73455417171952 5.19505347805945 0.171834447749461 0.843337159726919 0.12616
0.12618 3.04739720189304 2.60619303336715 5.06287676892462 0.158128375242465 0.811116354702444 0.12617
0.12619 3.47287081926773 2.63469219012844 5.00821437085658 0.174216711644794 0.824402537146785 0.12618
0.1262 3.76504752828206 2.60497030082378 5.04454990965787 0.180511777611483 0.831918739335308 0.12619
0.12621 3.80973587090133 2.94776812044615 4.93490242910024 0.191513400892445 0.799122642767309 0.1262
0.12622 3.78366743444678 2.64584473232332 4.60242746216898 0.176931255148982 0.791934648570193 0.12621
0.12623 3.53930211331229 2.82301136506838 4.81557621589251 0.174980693385505 0.816184291415672 0.12622
0.12624 3.86723940148129 3.00833268876375 4.93327177385257 0.192207386151534 0.819729622025069 0.12623
0.12625 3.67435605629882 2.71878039194771 4.90867337825554 0.172936449453371 0.842241584178744 0.12624
0.12626 3.79852912969444 2.88288130925634 4.95032474833133 0.192392661316395 0.837316693196225 0.12625
0.12627 3.6961497759919 3.05054073973306 4.83058347992895 0.181759382702964 0.803131194408059 0.12626
0.12628 3.64168911626924 2.6900066268397 4.9710177584707 0.178756766914361 0.809716591997221 0.12627
0.12629 3.48006411540636 2.9446606154349 4.89607622647042 0.177799819041525 0.832140672991167 0.12628
0.1263 3.63174175074027 3.19397554534938 5.02140690171869 0.186543548197471 0.843398436952267 0.12629
0.12631 3.67138527840749 2.8907971693468 4.95151481937787 0.179601721090768 0.842122127319239 0.1263
0.12632 3.60294493305061 3.10890965769684 5.09166351364909 0.191139532824909 0.833362066080287 0.12631
0.12633 3.55560054467298 3.34981369682054 4.99052453106815 0.201238633317901 0.802519445195516 0.12632
0.12634 3.64914861140614 2.77039879908307 5.00639552122663 0.17728159407124 0.845940006485293 0.12633
0.12635 3.56080840739405 2.95044327784867 5.13895915406389 0.190629516970874 0.831908901374589 0.12634
0.12636 3.21054952881372 2.74862189718068 4.82532128094096 0.164524382535133 0.800514344804921 0.12635
0.12637 3.25388305412367 2.75017980558436 4.92559785697323 0.163273526105379 0.798499971536244 0.12636
0.12638 3.3025600410223 2.87767372954596 4.74874946047666 0.177186894782526 0.774202971152621 0.12637
0.12639 3.62554567183665 3.22603136478689 4.83227935614032 0.197432353036075 0.80690378629683 0.12638
0.1264 3.70079416892657 3.21303650367714 5.06841484831796 0.186756743161559 0.854862978336161 0.12639
0.12641 3.6307854625897 3.21418792093666 4.95068976155488 0.190256443773043 0.830352989860775 0.1264
0.12642 3.47566563720547 2.98040672233801 4.8921237825483 0.184798317924119 0.801429952703285 0.12641
0.12643 3.63309979123385 2.95173745184046 5.05346398113422 0.186454746018103 0.818969987392528 0.12642
0.12644 3.67665598733016 3.01122397639701 4.95583180714796 0.187193415931949 0.812147944487198 0.12643
0.12645 3.50983245090728 2.39281585540439 5.0686287077566 0.163903884541701 0.835977770276933 0.12644
0.12646 3.52935593663442 2.60256265018158 4.92634357860536 0.165727981356321 0.837898030982952 0.12645
0.12647 3.50881980731087 2.49276048848936 4.88271374466187 0.177193123165537 0.791956090194632 0.12646
0.12648 3.59732825899398 2.80358269384594 4.84669123873665 0.180951792716742 0.819483758321272 0.12647
0.12649 3.55810084731622 3.19911342934337 4.95210112883008 0.179752524521993 0.853005614832962 0.12648
0.1265 3.42353757854888 3.03539494970582 5.06017232190755 0.180892256532302 0.830088720860345 0.12649
0.12651 3.64856863056125 2.73723572102325 4.94762886595693 0.188525844712851 0.801741454766834 0.1265
0.12652 3.70926657454493 2.49844966338353 4.89954623752864 0.166935237182499 0.812285515890225 0.12651
0.12653 3.69603009561079 2.76146417364398 4.950385997391 0.18329576228365 0.814497237960133 0.12652
0.12654 3.82718309338106 2.87158503820609 4.78751560913045 0.190840838536616 0.80865587422343 0.12653
0.12655 3.8063384675596 2.78916545648222 4.77308298637117 0.182160120433133 0.814596113951411 0.12654
0.12656 3.52631568235081 2.89371918462201 5.02673949482344 0.179296858716666 0.843071833825782 0.12655
0.12657 3.47492493806121 3.11616840107463 4.93630424789928 0.187357956192986 0.801695583298674 0.12656
0.12658 3.48083124215297 2.43090349431476 4.960238775847 0.15908203560115 0.835791530863984 0.12657
0.12659 3.6129786184181 2.61669232357486 4.76534669870252 0.176382900717313 0.798254491025074 0.12658
0.1266 3.79290258004983 2.97031321904301 4.77807373807797 0.194903681907133 0.796232555518448 0.12659
0.12661 3.63561347461103 2.82206988384386 4.9753151902637 0.186190237800472 0.827062114624956 0.1266
0.12662 3.46473420394927 2.81351556226555 4.86983786505556 0.172372424391503 0.818582180831548 0.12661
0.12663 3.47402632730612 2.49879854560665 5.0269391628748 0.175536143263343 0.79890581190165 0.12662
0.12664 3.74786765940944 3.3327112145997 4.73313508140374 0.203990564249141 0.807630516271849 0.12663
0.12665 3.94874662509487 3.35478484935351 4.8777059129757 0.196290626331257 0.862887583888343 0.12664
0.12666 3.86331482016607 3.02869410664302 4.89581900167294 0.197257414716622 0.819317655639528 0.12665
0.12667 3.64267856151174 2.95208646855049 4.85777265962694 0.182787165645327 0.814360489083608 0.12666
0.12668 3.78741884971894 2.71365185593925 4.8746905167595 0.18607305502187 0.810333936519989 0.12667
0.12669 3.59876006831142 2.61015307611668 5.17164718236603 0.164592209881748 0.848028314480213 0.12668
0.1267 3.85921563463741 2.67165887838237 5.00988346177034 0.184178615649698 0.821987363588382 0.12669
0.12671 3.6735361510731 2.87864546983652 5.15602121547895 0.181752523953744 0.849651985847146 0.1267
0.12672 3.51287542919069 2.74791187084256 4.90043831939303 0.16658156113128 0.84038256649558 0.12671
0.12673 3.66389831038328 3.05082243277218 5.01033144121486 0.193541538918015 0.828255113128113 0.12672
0.12674 3.59609700317625 2.83263153298431 4.92887121638585 0.184289615865358 0.814749715149704 0.12673
0.12675 3.57436463495587 2.75215822112852 5.01095982899537 0.180431534773611 0.835209707279124 0.12674
0.12676 3.72001081499071 2.79122998471187 4.93709544986066 0.188314974684093 0.807049757994263 0.12675
0.12677 3.76463840202884 2.87701203128288 4.82575266318345 0.179016488306706 0.83498273952963 0.12676
0.12678 3.48226405681527 2.76086635795965 5.13964983593207 0.175820980372614 0.837928822236306 0.12677
0.12679 3.71285718428708 2.44860233872368 5.09314778947997 0.171244366351997 0.829864630026533 0.12678
0.1268 3.58121672301789 2.47470568711558 5.19991570788998 0.16900780094985 0.861686027601869 0.12679
0.12681 3.64064655449505 2.90365859872767 4.906899618861 0.188061854593439 0.834425160309451 0.1268
0.12682 4.06804158447316 2.97177131774726 4.99093593899504 0.202602097436684 0.845293118292546 0.12681
0.12683 3.93059578802511 2.80081368095709 4.70827706066549 0.18336444828252 0.820248472679866 0.12682
0.12684 3.60674996995227 2.85927707481062 4.97306690062498 0.182423474945551 0.838232996621867 0.12683
0.12685 3.31528321154489 2.95650083726258 4.91709403773446 0.181269980102908 0.784075762975335 0.12684
0.12686 3.43067638043046 3.06647686264053 4.64430472577176 0.176889387313235 0.796031619781496 0.12685
0.12687 3.47727199065492 3.09560483968424 5.02346567530083 0.182684685660832 0.837783857682938 0.12686
0.12688 3.57797008858337 3.06832875880209 4.96672009106005 0.188877484764838 0.837743346038162 0.12687
0.12689 3.6835232038603 3.02415603692837 5.11506367325523 0.188578447875871 0.84033784237236 0.12688
0.1269 3.66892267348974 2.74616477836905 5.18321197769239 0.170736245716339 0.882354038227614 0.12689
0.12691 3.73727403007504 2.66652359855663 4.98131710431007 0.1776479601975 0.827785823746068 0.1269
0.12692 3.60101827021761 2.94895651428278 5.1451451255087 0.189302907404441 0.833207016171406 0.12691
0.12693 3.52838539214363 2.82458795742606 4.73588304726517 0.177029453369091 0.777925043938484 0.12692
0.12694 3.63387449891732 2.90537183958172 4.91056054625102 0.188407953004658 0.799167195513717 0.12693
0.12695 3.80028922580358 3.01943305253734 5.04347535045331 0.182748259009265 0.861288846030185 0.12694
0.12696 3.81411002894863 3.12162995561606 4.94501380594792 0.198659095139516 0.845597781222717 0.12695
0.12697 3.85407346732784 3.07541600591446 4.91500033362654 0.196235134887078 0.826762758653989 0.12696
0.12698 3.6963665717976 2.89392543200781 4.82287105339613 0.178957672375786 0.814034336666425 0.12697
0.12699 3.29710282783748 2.74550450295197 4.90565505160885 0.176345306115052 0.809383879826078 0.12698
0.127 3.72077869749703 2.92194573963529 5.24856709796849 0.191315846044547 0.83661760466675 0.12699
0.12701 4.02821483497137 2.88441320118859 5.28317532019609 0.194845855867979 0.896861307740797 0.127
0.12702 3.68177787218944 2.9551870191342 5.24742841828954 0.194367663132438 0.838000812088654 0.12701
0.12703 3.52138860100781 2.90068430478711 5.09445034254855 0.173377471857412 0.850736616149465 0.12702
0.12704 3.39473819790623 2.92619687113189 4.72304709586991 0.180279450387895 0.799275793795578 0.12703
0.12705 3.72432893403241 3.15885341308395 4.68773410828032 0.188490940606147 0.80934758862612 0.12704
0.12706 3.83991046144631 3.42895772504193 4.68822167191873 0.208814440319185 0.79472359625224 0.12705
0.12707 3.69489478516904 3.2478421177846 4.93024359195474 0.192070401270764 0.828461985395862 0.12706
0.12708 3.39341938751064 2.61881395430331 4.81602588628993 0.160409875340657 0.815343661907869 0.12707
0.12709 3.45032060916868 2.55441276214354 4.86506880738674 0.167184954479553 0.803347096537106 0.12708
0.1271 3.55025039232873 3.17901981906854 4.98331033442026 0.188304170211154 0.833057784805417 0.12709
0.12711 3.61810556942799 3.1674625527915 5.17175684506095 0.189771739877193 0.847781652846439 0.1271
0.12712 3.14676955966517 2.85077929851624 5.04881735487852 0.168817218746645 0.804491267869128 0.12711
0.12713 3.57045718523695 2.54774669000409 5.29597875740149 0.174489399204288 0.844748294124304 0.12712
0.12714 3.38266975848949 2.67050678536619 5.27550814743616 0.166555450536439 0.847833910522924 0.12713
0.12715 3.47018764010645 3.09378596555087 5.06869427376172 0.18547235875191 0.829249417944468 0.12714
0.12716 3.64563975062988 2.67677792991449 5.06621144868055 0.176489814590761 0.848934993359009 0.12715
0.12717 3.5587998042645 2.90648207498762 4.82409886454058 0.186191736203031 0.791579779740615 0.12716
0.12718 3.58479832377111 2.78980171917761 4.93188787925509 0.180846474274174 0.833889665550298 0.12717
0.12719 3.79117088209083 2.80160701585461 4.91266074985721 0.183609978768425 0.815223795520653 0.12718
0.1272 3.94784735197267 3.26888538926449 4.96056946131299 0.20709077545742 0.83992709312019 0.12719
0.12721 3.54955686269779 2.71129601009373 4.98846785096416 0.174162902613913 0.81958974865222 0.1272
0.12722 3.31360253432643 2.72329364736937 4.87065719380777 0.169443979334237 0.780948572154183 0.12721
0.12723 3.58477610599942 2.91172568378139 5.01637660674671 0.183145908793172 0.831784158587367 0.12722
0.12724 3.84060597850004 2.62615949520921 5.14501836960536 0.172622700819086 0.866803861363766 0.12723
0.12725 3.79227994599531 2.994019693352 5.18456313239468 0.190713782639193 0.860979764727515 0.12724
0.12726 3.81769653608059 3.00538344025093 4.97289407355662 0.191579513834714 0.826985099076359 0.12725
0.12727 3.64363035012685 3.17554700590835 4.97114612705635 0.19695397693441 0.831768722850354 0.12726
0.12728 3.76834677844454 3.16662865953295 5.0189625477288 0.190961706158911 0.864514544956224 0.12727
0.12729 3.73056062541731 3.42497245855603 4.97972789117108 0.200756209173676 0.85745956887864 0.12728
0.1273 3.61452980357962 3.37152437737669 5.05802005203405 0.199511458366652 0.828434780698385 0.12729
0.12731 3.68054564485684 3.19026649691528 4.87843890220194 0.198952641546842 0.804230047708992 0.1273
0.12732 3.5108420915037 2.96205508166849 4.77472930733687 0.179826151382327 0.816808235020418 0.12731
0.12733 3.23056995456608 2.81924695271256 4.93822151012311 0.176022795075494 0.79482405785309 0.12732
0.12734 3.45064257758123 2.95495694444171 5.03886997524186 0.179343594701072 0.826478632302549 0.12733
0.12735 3.48613260282387 3.13529458507711 4.99862873739918 0.187668485045393 0.826133418598093 0.12734
0.12736 3.30922978907762 3.00573585685604 5.06452430818305 0.169609644264641 0.854123831122192 0.12735
0.12737 3.73420119341013 2.97157991348316 5.05616235573544 0.191579204096001 0.836914542764905 0.12736
0.12738 3.66900430282667 3.06356386790134 5.02882825131401 0.188907917769184 0.86169446524477 0.12737
0.12739 3.62152485368383 2.96490217420323 5.06059432094416 0.178740918296777 0.839088281906795 0.12738
0.1274 3.76975542364456 3.08974687556296 5.04915315055399 0.194995073913759 0.810035997955825 0.12739
0.12741 3.70480231933554 2.95497101277485 4.99360598737823 0.185875692145355 0.838688081783206 0.1274
0.12742 3.60553774563451 2.66068408949776 4.89317239965302 0.175619679321761 0.82706585477399 0.12741
0.12743 3.58475449061307 2.77267177079288 5.04238268131592 0.179823546648578 0.818346839548732 0.12742
0.12744 3.88506035743103 2.90915034538888 5.20909047413233 0.187913530107006 0.857861991987691 0.12743
0.12745 3.89807649246777 2.85178925406531 5.09534329110987 0.1952619419606 0.81665988205428 0.12744
0.12746 3.56229284852291 2.70973335091888 5.04270859813552 0.179342369564273 0.838791201855714 0.12745
0.12747 3.59769498275909 2.44982943872598 4.92334707072741 0.164506177617911 0.82057301732758 0.12746
0.12748 3.54450366693492 2.54354567451765 5.06505417909226 0.164864323200714 0.806878477688284 0.12747
0.12749 3.69764564451896 3.28430595943328 4.95998640071641 0.187168565782586 0.844043865053571 0.12748
0.1275 3.39591463792065 3.04701224341932 4.91092305542268 0.181477515579093 0.831096919875794 0.12749
0.12751 3.70808328682359 2.83569571117337 4.88082197279143 0.186138689126217 0.808618618114928 0.1275
0.12752 3.77222984695132 2.58896482118276 4.90956009669218 0.175651032389077 0.823766855637755 0.12751
0.12753 3.70384543207799 2.73362242910711 4.87940912505861 0.179272637992631 0.807204137964983 0.12752
0.12754 3.62509611625277 2.99253812595486 4.93775939930025 0.18111007502379 0.832962102647124 0.12753
0.12755 3.69154674986328 2.80644531341373 4.96820320797592 0.183987572008814 0.828475742723481 0.12754
0.12756 3.31525926247212 2.94651742624359 5.05241247351182 0.175690987053078 0.822510166431507 0.12755
0.12757 3.6289409408436 3.01056296306105 5.14763156618143 0.190663382939382 0.832379217401009 0.12756
0.12758 3.63408360457108 2.95129179473264 5.10411651527254 0.184675277472332 0.839563879025923 0.12757
0.12759 3.95694086786032 3.14493313406848 4.93610217829219 0.205050486430944 0.839907511026185 0.12758
0.1276 3.90535335078995 3.12789922086714 4.93203248545249 0.191869106836798 0.833329919120365 0.12759
0.12761 3.59096091803344 3.01463944054178 4.82471383165875 0.180396494594013 0.81350621309523 0.1276
0.12762 3.5618433732767 2.69094709206512 4.98081005756015 0.171074960571581 0.818352559986264 0.12761
0.12763 3.5869891511742 2.77994356819123 4.95266599792969 0.177449993590544 0.821564480567793 0.12762
0.12764 3.97448279678492 3.16262364846557 4.97881091829139 0.198102413848324 0.845993778561414 0.12763
0.12765 3.91105752227245 2.69048964204442 5.09926473103992 0.189048966609228 0.842250842257511 0.12764
0.12766 3.8825701515451 2.63819536170193 4.99440913627863 0.180384832307796 0.838606535642692 0.12765
0.12767 3.87166014546735 3.07032652943995 4.97041631104814 0.200415022145145 0.828236267530678 0.12766
0.12768 3.85962613324114 3.17552282804935 5.04704720353306 0.194347916364617 0.866241884263001 0.12767
0.12769 4.05036127711737 2.79289318381599 4.99371167117567 0.196453765450424 0.823400404744571 0.12768
0.1277 4.03862434526444 3.02409339344966 5.01785987911886 0.199360713309298 0.852611311407826 0.12769
0.12771 3.81550803799139 2.65372384653269 4.85183666658713 0.184057201969557 0.81999867741929 0.1277
0.12772 3.87272629317729 2.78796434690468 4.88150468661405 0.185357652630804 0.820523665415684 0.12771
0.12773 3.92665332397328 2.76640513830782 4.88886043129186 0.188928232760199 0.821494990740524 0.12772
0.12774 3.79957543004266 2.74347681576246 5.03877337146191 0.182896745165252 0.829221901151349 0.12773
0.12775 3.83961821392981 2.77640225909441 5.09853701435799 0.18953275894829 0.845377820678376 0.12774
0.12776 3.72118995483136 2.6108873624046 5.01674055371223 0.17596474074306 0.842230483396634 0.12775
0.12777 3.34200451626383 3.22222590703909 5.00632615746748 0.1806792359318 0.854419307480644 0.12776
0.12778 3.35729667632108 3.16020522493281 5.10836016976715 0.186356158074083 0.828055281139674 0.12777
0.12779 3.62496462145205 2.97336292180312 5.26286524012284 0.189791913525172 0.838187235664695 0.12778
0.1278 3.29634300292742 3.02846333556094 5.26978354054184 0.175647121903443 0.857737762287593 0.12779
0.12781 3.61060406888307 2.87934066865771 5.12341848677856 0.181995721035282 0.841789954057231 0.1278
0.12782 3.66772096389529 2.9164969501018 5.14336095598519 0.188011703505378 0.856094726944497 0.12781
0.12783 3.4237785759192 3.19158098503797 4.8828228855235 0.177787345619914 0.825369187340216 0.12782
0.12784 3.37265946069968 2.9621922816328 4.83763775716079 0.170877150135787 0.814086810772215 0.12783
0.12785 3.70249636580962 3.15159358897448 4.87122295217172 0.190385692620315 0.832771522707022 0.12784
0.12786 3.73036956765689 2.99196018954489 5.05429770614134 0.185709649272589 0.857504567650081 0.12785
0.12787 3.40768669214732 2.8859524390525 5.04155255566665 0.170707243203194 0.830816859771899 0.12786
0.12788 3.61812812021343 2.97761756110374 5.06078781427888 0.182476765890085 0.843130695181686 0.12787
0.12789 3.81304800375656 2.81226015184833 5.22216639194355 0.188819334565567 0.878978967323078 0.12788
0.1279 3.49274088071199 3.10153479335146 5.22263661636436 0.183413556042356 0.862782938496095 0.12789
0.12791 3.93473940866186 3.22368051706975 5.11797932090944 0.192003939613543 0.894339255331844 0.1279
0.12792 4.13316711698577 2.87441338867762 4.94710090187291 0.203429530420715 0.838245391708473 0.12791
0.12793 3.85912861325091 3.06835089268873 5.06916548441145 0.20034775050153 0.85687224587592 0.12792
0.12794 3.86208194634049 3.0170133055378 5.1640443722351 0.191360865823519 0.852713443244725 0.12793
0.12795 4.04367259041386 2.98024342424992 4.86597084470788 0.198078025217593 0.809853679336448 0.12794
0.12796 3.80928808033934 2.98169627198904 4.89127752546902 0.1873740606241 0.83315216256976 0.12795
0.12797 3.84658794298452 3.19869898468903 4.92584477311273 0.201005476145599 0.86553736006372 0.12796
0.12798 3.84379536611846 3.13082528354374 4.92887158591575 0.203057391935527 0.836523677052511 0.12797
0.12799 3.85469641573492 3.14451074308464 4.95773727482146 0.197528591832025 0.852742215768393 0.12798
0.128 3.89924383807836 3.02342692132028 5.063537749552 0.194545449223202 0.846432314824839 0.12799
0.12801 3.74844802518241 3.01725634430811 4.98094045730879 0.183717605780927 0.852133316426542 0.128
0.12802 3.71136575722698 3.03757707365845 5.16705358841969 0.188210111965989 0.857307837499321 0.12801
0.12803 3.60815742186994 2.78685842821679 5.11132386744207 0.180967988743592 0.837349908112312 0.12802
0.12804 3.37036344405296 2.79496455625611 5.242772788788 0.174197799749245 0.859203790762081 0.12803
0.12805 3.57477024798112 3.07509037240772 5.19330174697643 0.182883192020662 0.864897602322241 0.12804
0.12806 3.55374647734492 2.91131665652043 5.20390461362408 0.18372599942316 0.835958523298288 0.12805
0.12807 3.48547106362453 2.82631902187465 5.19230209535927 0.172098457575514 0.818170821432121 0.12806
0.12808 3.28323773813715 3.11417184349479 4.95150306352455 0.174294969678469 0.825853744015131 0.12807
0.12809 3.73546955716968 3.31008145021319 5.18773381311848 0.200541292375333 0.870325814264609 0.12808
0.1281 3.76195895801398 2.98421918171371 5.01604071778785 0.191076596996691 0.804771952472565 0.12809
0.12811 3.57108004908225 2.85066695996287 5.1119492573373 0.178910310136851 0.861461078173648 0.1281
0.12812 3.17754923196408 2.41998928771274 5.02674902140146 0.160528181488401 0.79898910788907 0.12811
0.12813 3.25166651734968 2.50651401352383 4.85962818467562 0.157802278578361 0.801737167690884 0.12812
0.12814 3.39031540164077 2.52190156934866 4.68990074583789 0.163893761081694 0.781120989292946 0.12813
0.12815 3.46714670217545 2.88900677447176 4.89373775999815 0.174084739022378 0.813020678130874 0.12814
0.12816 3.56388010018574 2.93738309656603 5.07070114901401 0.178389158749468 0.84627634064468 0.12815
0.12817 3.77896897118038 2.80397859989101 5.12792265232868 0.18713623957307 0.867000636197376 0.12816
0.12818 3.47883843443658 2.44675848444667 5.3048748588774 0.167507420015909 0.848250796389699 0.12817
0.12819 3.67798033296279 2.67612876850854 5.11162227142088 0.182672557568767 0.848330999505174 0.12818
0.1282 3.78064454280671 2.97474890151541 4.72917757213798 0.190029382757976 0.802344073646189 0.12819
0.12821 3.5922387623787 3.15535613733957 4.76030771889769 0.191196701306545 0.797233673954987 0.1282
0.12822 3.52604444266921 2.89406362774091 4.74523498997944 0.177806306578528 0.790003534119879 0.12821
0.12823 3.53911441579651 2.59448540835416 4.93849799777443 0.179293110032451 0.802684976670911 0.12822
0.12824 3.48162616201048 2.80593304432324 5.02197106928943 0.169801750301568 0.838237746603889 0.12823
0.12825 3.35993339534983 2.62756886431182 4.92840539513542 0.173971381480779 0.802249763475838 0.12824
0.12826 3.68197960959369 3.28553858344311 4.7895849483567 0.188958356945138 0.825375783837659 0.12825
0.12827 3.69346813748936 2.84193490203543 4.86420067551147 0.18297764166021 0.78201706642757 0.12826
0.12828 3.63213272384286 2.82486771322055 4.90713765481826 0.179260618604037 0.818986473359404 0.12827
0.12829 3.59941392834558 2.66680150703126 5.07771373300965 0.17345235803645 0.812711967329835 0.12828
0.1283 3.23573494431948 2.68324221907335 5.0301727863747 0.167342657471115 0.80616297887296 0.12829
0.12831 3.4796852252106 3.2396229782201 4.93260844153679 0.186516838533416 0.846285896060468 0.1283
0.12832 3.33999819497437 3.12608931584215 4.87788734844285 0.181243678779498 0.802635823190741 0.12831
0.12833 3.46922569962584 3.0043595022306 4.90472215777207 0.178303282449819 0.809685257615641 0.12832
0.12834 3.69323628957154 2.74787936094131 4.92396761263707 0.18511543422383 0.807729470008891 0.12833
0.12835 3.62919584647052 2.69185235379829 4.77512669041265 0.1783658421047 0.797078843369955 0.12834
0.12836 3.61897368784343 2.94530552917851 4.80756283255827 0.184068467315804 0.814947780981786 0.12835
0.12837 3.64635810718137 2.89512673008185 4.78885588864919 0.178235476538359 0.798121442066531 0.12836
0.12838 3.48270951025556 2.65442527757027 4.85704857011926 0.17292753054265 0.813337540799026 0.12837
0.12839 3.32635360246365 2.82420063339197 4.84195580355062 0.175452768969394 0.808462918513682 0.12838
0.1284 3.40042864726228 2.85620290398922 4.88034756408739 0.176446971315773 0.812902484603689 0.12839
0.12841 3.67982994863639 2.67897157403475 4.92587221745847 0.186521730956733 0.828322428369731 0.1284
0.12842 3.68661490008271 2.62210581278715 5.08597480011432 0.171264701413933 0.856319985561995 0.12841
0.12843 3.79727036785967 2.52763012559118 4.97398189133752 0.176323161936951 0.805630350694334 0.12842
0.12844 3.80703903951818 2.57080727192692 4.88571528546216 0.18216936232388 0.833361564161594 0.12843
0.12845 3.64728607188903 2.86309125280217 5.12398703543155 0.179647236078452 0.843028469803176 0.12844
0.12846 3.61135453594007 2.47623614232458 5.05008254335221 0.167923249951762 0.803556876084509 0.12845
0.12847 3.69706359577446 2.48271526305075 5.07529898455359 0.169542362156777 0.812741886388514 0.12846
0.12848 3.63695447945402 2.74862245644468 5.0077082271659 0.179181706966114 0.83349951489486 0.12847
0.12849 3.8803751451705 2.81853227019637 4.76304477595384 0.190903020848078 0.813290127371742 0.12848
0.1285 3.69754303888867 2.49247013287191 4.87603250803246 0.177802119252841 0.788947609315563 0.12849
0.12851 3.62899710727058 2.37427225820175 4.88483967191482 0.172069112854218 0.790656400190886 0.1285
0.12852 3.52982255533723 2.53035325864881 4.73785739299481 0.165882188505436 0.787464960976138 0.12851
0.12853 3.59220719775413 2.8875044869365 4.74453635362397 0.181895330140471 0.779902651030833 0.12852
0.12854 3.41165296055387 2.82473648862484 4.78571019668307 0.171377377093544 0.80594482103132 0.12853
0.12855 3.56677927848698 2.73601567583379 5.01907379440267 0.173866163962732 0.823493225062437 0.12854
0.12856 3.48602774133482 2.65589213831465 5.01033011267141 0.178122699520245 0.808084592128228 0.12855
0.12857 3.65766024956063 2.85843239226127 4.84458000077345 0.175553317540303 0.807496665907786 0.12856
0.12858 3.5878583332939 2.96952405766074 4.9213304853976 0.185883630794465 0.839176047431724 0.12857
0.12859 3.71882235840027 2.99864789161422 4.97431371942238 0.193439238941708 0.814866905888938 0.12858
0.1286 3.64321860288748 2.86716369306882 5.01666925099414 0.183980503180997 0.818928693307591 0.12859
0.12861 3.44697212179233 2.68811616866873 4.80688233334914 0.168806437908044 0.795594158873775 0.1286
0.12862 3.57874021626812 2.74622821579281 4.77812657987717 0.180564120824814 0.813537351650349 0.12861
0.12863 3.45852910813991 2.62539169915225 5.0194668845956 0.168057929406054 0.83248272862056 0.12862
0.12864 3.78654573293241 2.86227668269254 4.86389430217404 0.180233016263574 0.83643725417427 0.12863
0.12865 3.70515012007273 2.56922939122436 4.97751562951833 0.173451605947242 0.832381803728686 0.12864
0.12866 3.92981823368001 2.71567572826624 4.99733297485202 0.188139991522821 0.845230161320959 0.12865
0.12867 3.85139750519449 2.72064339558907 4.89251271085261 0.181940554304992 0.817783750710278 0.12866
0.12868 3.75616201975972 2.4298777149399 5.05329095722561 0.175325802425023 0.839580988843894 0.12867
0.12869 3.72607909443144 2.80094490844387 5.04784355491082 0.184440236091034 0.839282090338176 0.12868
0.1287 3.73741753513727 2.51583788109538 4.952837680023 0.174197953348409 0.823679224642371 0.12869
0.12871 3.82554636978181 2.56555508065656 4.90641074976254 0.180317304848638 0.812675244866823 0.1287
0.12872 3.77139961261163 2.73372440113593 4.85722993787059 0.172808453168362 0.821093652212057 0.12871
0.12873 3.94392374821183 2.43647705664712 4.99603794932152 0.188060242720913 0.82882739417225 0.12872
0.12874 3.66960560820311 2.57673616661708 5.04765343774393 0.182311976172713 0.7980024944165 0.12873
0.12875 3.73474172384079 2.69872939529776 4.98986415519367 0.17824591847054 0.847252062420446 0.12874
0.12876 3.47269528988259 2.77747814653116 5.13046170856532 0.179506905345664 0.826231793566174 0.12875
0.12877 3.30951772099985 3.04221755745936 5.00911533327573 0.179606961213861 0.837765543680969 0.12876
0.12878 3.15568711740441 2.95243559763631 4.9917718335934 0.169729337976244 0.818028155299929 0.12877
0.12879 3.62483163025314 2.92937502598116 4.68991902186617 0.184905527580687 0.781901247126297 0.12878
0.1288 3.42234678920494 2.71567293607221 4.82277214286552 0.170494924084441 0.818222816063441 0.12879
0.12881 3.44510984562234 2.69641326112471 4.95087838600126 0.166198331498083 0.828072076799381 0.1288
0.12882 3.46452624180346 2.82602757741376 5.16091221408944 0.175520300354628 0.818494183901054 0.12881
0.12883 3.56499494520546 2.99582905580435 5.08163633763624 0.184955523652034 0.838804409089807 0.12882
0.12884 3.54569205331584 2.97368760869838 5.24255250705282 0.187973477965318 0.856801678991063 0.12883
0.12885 3.55657214342549 3.15952700045504 4.89948430732563 0.185408284829233 0.825119147934554 0.12884
0.12886 3.61675528188863 2.9314171511479 5.00695506542902 0.179030324164262 0.83352441988195 0.12885
0.12887 3.81428463620797 2.89508592711178 4.97420713095702 0.189881453416505 0.802906069873589 0.12886
0.12888 3.85876955641799 2.82741176731573 4.87968097848415 0.180914262639209 0.854339385412637 0.12887
0.12889 3.72479462942864 2.76359280051166 5.04678567922483 0.189537535214682 0.807304877600095 0.12888
0.1289 3.59045028131916 2.67509233736234 4.92214752791029 0.173885363509722 0.798913119672239 0.12889
0.12891 3.71971340685323 2.51907723630027 4.92503566166921 0.178574751761253 0.80440276013885 0.1289
0.12892 3.50844160379074 2.46247597500669 4.99637592218231 0.172626808276769 0.797857934638127 0.12891
0.12893 3.99500099929643 2.49429037824416 5.06209898964717 0.172584962910705 0.873449559170574 0.12892
0.12894 3.51971015247675 2.81660736982858 4.98450265350533 0.183632104890163 0.798019022108576 0.12893
0.12895 3.76848255201038 2.82678226015527 4.84398971394843 0.185719986825924 0.830623455697758 0.12894
0.12896 3.56652025637996 2.87915891982754 4.72974760435878 0.177916875125195 0.800499265844007 0.12895
0.12897 3.65934304389373 3.01930024366718 4.852225303031 0.184820771799223 0.818116248316228 0.12896
0.12898 3.7951255657352 2.83052747091552 4.97222039999311 0.179601548260038 0.860557131407273 0.12897
0.12899 3.71663188895889 2.88313760343252 5.00338828815703 0.184425358474231 0.844767929614302 0.12898
0.129 3.54159907131742 2.75962157885871 5.11120459720582 0.178193260573772 0.824423407220052 0.12899
0.12901 3.31785254220248 2.95792927284903 5.06868100559669 0.1715957731369 0.832537751112419 0.129
0.12902 3.28232237683541 2.61351167021368 5.16425108878959 0.163612591214332 0.846647541851577 0.12901
0.12903 3.48264817434554 2.82721602592533 5.03344540498434 0.176989454778663 0.831166437468571 0.12902
0.12904 3.43763917162404 2.93888148608603 5.00855204322199 0.172855598502087 0.825992572007066 0.12903
0.12905 3.72239175368676 2.82930695129123 5.1977824557204 0.190806338703926 0.815748933076222 0.12904
0.12906 3.37613585024057 2.67221321532245 4.82917670028481 0.168719875412651 0.796725444842625 0.12905
0.12907 3.59201341215271 2.73018803645622 4.85268568369204 0.178872978329882 0.804550746241295 0.12906
0.12908 3.61516292647551 3.32136337275645 4.80534756036755 0.200007131540932 0.799353594404227 0.12907
0.12909 3.66306038363587 3.10294047908424 4.65688325446958 0.187501402403322 0.791517541132877 0.12908
0.1291 3.73642934831445 2.76315970935353 5.01626341059141 0.172558461694031 0.835959551153743 0.12909
0.12911 3.46953839401478 2.77132384484867 4.98570665024006 0.186096035247768 0.806610470447352 0.1291
0.12912 3.59841537888247 2.73488853417469 4.96535366211548 0.171572645870863 0.838232745787458 0.12911
0.12913 3.78306290303653 2.56649832744604 5.32199001775189 0.180567840515446 0.872790827515679 0.12912
0.12914 3.4820449252698 2.70730750790616 5.2139698533144 0.172633990620952 0.836544094068737 0.12913
0.12915 3.235875224458 2.54578681319912 5.11613510303483 0.161412628464071 0.815120699569853 0.12914
0.12916 3.6319341329488 2.85086029117057 4.91816756269449 0.173810959336908 0.848461436677685 0.12915
0.12917 3.63558892485072 2.66314730034788 4.81554491256693 0.183601514974162 0.796534873405498 0.12916
0.12918 3.44417369931885 2.94497076059234 4.90691460831539 0.178707419346411 0.812331708778965 0.12917
0.12919 3.38371980573893 2.720249328092 5.00686426342663 0.16716821345224 0.835523405254754 0.12918
0.1292 3.59752347479978 2.85298264196717 5.11124524141465 0.183708821235192 0.821048008047207 0.12919
0.12921 3.63520354662331 2.70716981919127 4.79692356854984 0.177142878254187 0.812964877950476 0.1292
0.12922 3.62306210605108 2.59850047146856 5.05070902340755 0.178180407916249 0.818682118416939 0.12921
0.12923 3.52010459668278 2.83479875625427 5.01009641248975 0.17512615862517 0.824129936962477 0.12922
0.12924 3.50778200630212 2.8853628810478 5.0924322191605 0.182105914565377 0.83212189499008 0.12923
0.12925 3.51120860232333 2.5149229906023 5.06151483444297 0.170959622601578 0.821150663817549 0.12924
0.12926 3.57327719770068 2.92666699333783 5.05875070210883 0.177488199298595 0.831095314736438 0.12925
0.12927 3.69462765235602 2.96025962188383 5.21803928679269 0.193332472954711 0.832690127569669 0.12926
0.12928 3.55381044056569 2.86703578550993 5.06308109461042 0.179435226066365 0.83720827705435 0.12927
0.12929 3.62833005512592 2.74917416903753 4.88526049856206 0.178321750732499 0.839656055450221 0.12928
0.1293 3.80493127555764 2.96791393238229 4.90220607451276 0.187715511885715 0.826883840643911 0.12929
0.12931 4.11730765585793 3.05837895365066 4.6421553760628 0.200719721908914 0.813003894530125 0.1293
0.12932 3.86626429665281 2.87671718090417 4.8011850668187 0.191092636518931 0.804788759612104 0.12931
0.12933 3.8500886605878 2.60247216579984 4.77883826843538 0.177837995296993 0.816722076559786 0.12932
0.12934 3.69778705873159 2.5339954877941 4.89303436804565 0.174484604760804 0.821875121137564 0.12933
0.12935 3.63687457713345 2.80849538228857 5.15025329063557 0.178132505376501 0.848058448990391 0.12934
0.12936 4.00826994468398 2.78384962311476 4.85316323330298 0.189298778011868 0.825780470916613 0.12935
0.12937 3.88685614225736 2.60500132917532 4.94607489821026 0.185796730031113 0.832733418083582 0.12936
0.12938 4.12578346369422 2.85902736814442 5.13180268918347 0.197308828334182 0.837693596641264 0.12937
0.12939 3.89489598102764 2.75982728199615 5.15751144587729 0.178284822846446 0.846873005226141 0.12938
0.1294 3.81126516423436 2.42316119512954 5.09350578894116 0.180914374614741 0.84245118051759 0.12939
0.12941 3.59976388996538 2.45057263552592 4.99005231749639 0.167981947545852 0.81490451472154 0.1294
0.12942 3.6235427731477 2.6145252485301 5.13701944458742 0.170641741663565 0.855400574723838 0.12941
0.12943 3.63318007750353 2.52686740755417 5.23835818039181 0.176753687716028 0.872292088969674 0.12942
0.12944 3.94841009918378 2.63116486333573 5.07014584524018 0.182731634063995 0.85354580259181 0.12943
0.12945 3.79352238101936 2.97762816892992 4.92538382229109 0.192199653371303 0.826011423295466 0.12944
0.12946 3.25422509502924 2.95339789839243 4.90308173062985 0.177618682876126 0.814462242323265 0.12945
0.12947 3.46026236734376 2.76386018754685 4.8445815172273 0.172569035704715 0.80636288483647 0.12946
0.12948 3.39953420685877 2.77659301597596 4.98403785156374 0.179821881206532 0.825570988522409 0.12947
0.12949 3.38628671527471 2.94074391659593 5.23985592012081 0.17036751868133 0.854366350098112 0.12948
0.1295 3.90030467448544 3.0522687389938 5.02303626961351 0.195216856161897 0.82574473714607 0.12949
0.12951 3.48768055926864 2.78083128648881 4.76162921600872 0.178004570690404 0.787657946843237 0.1295
0.12952 3.82639412412578 2.83912163700687 4.75401275225469 0.190170624903511 0.834697290150423 0.12951
0.12953 3.68288479463018 2.67417696748839 4.98457186100218 0.178601093465044 0.832207234832257 0.12952
0.12954 3.73592121110857 2.78857424409116 4.96062749565449 0.184233373218108 0.793745974250194 0.12953
0.12955 3.10431352835289 2.64643778571708 5.14431318851959 0.156568823891893 0.858073732076551 0.12954
0.12956 3.34923941121751 2.68370650456654 4.97055394293124 0.175695075412656 0.788235394386318 0.12955
0.12957 3.65986215655782 2.60059091275031 5.00036719029544 0.169298028565838 0.838456675866277 0.12956
0.12958 3.90427642865406 2.77396098396981 4.99447458734014 0.193603111543588 0.83806321690785 0.12957
0.12959 4.20729346191038 2.53453476519931 5.02889032998978 0.185061349798136 0.855605771007401 0.12958
0.1296 4.08054114379885 2.87761436298718 5.17726996512314 0.189904419829382 0.865767459349641 0.12959
0.12961 3.94079048067295 2.8701400690351 4.95948318322522 0.190852846961316 0.832975843037905 0.1296
0.12962 3.83818900522115 2.51379087333879 4.92161927461101 0.180201716300977 0.799110507831788 0.12961
0.12963 3.67972851057864 2.71023051549855 5.00793542007141 0.179700074763784 0.826828439876328 0.12962
0.12964 4.07422755251611 2.77210129028115 4.85398122801342 0.197391144480766 0.836434930184163 0.12963
0.12965 3.9354573653911 2.58235912074296 4.86521752312948 0.185577637158732 0.80266410402477 0.12964
0.12966 4.03917181295889 2.70898080686033 4.94416765296598 0.195613840604199 0.848126998726773 0.12965
0.12967 4.13560325360896 2.79755727992744 5.03547917953167 0.192569175598503 0.855525460973181 0.12966
0.12968 3.42024203476172 2.74924287811461 5.08552202584334 0.17324277907093 0.815807749229871 0.12967
0.12969 3.62380969852866 2.88552145143118 5.06209415276188 0.179858731203952 0.852169249758521 0.12968
0.1297 3.72950701203818 3.19556179760441 5.20541285043148 0.195944930904132 0.899895875665759 0.12969
0.12971 3.73630914253099 2.88535686385531 5.24949569433659 0.190310864276417 0.839520943768585 0.1297
0.12972 3.46355971705689 2.99680280630321 5.13387725634783 0.175923475379742 0.859092535302536 0.12971
0.12973 3.55520246958202 3.00381896028581 5.07336336098733 0.183292656167531 0.831645480631889 0.12972
0.12974 3.58703394867391 2.8281651986281 5.04974611807614 0.177434662194095 0.825449673865386 0.12973
0.12975 3.2030339591778 2.99825556101501 5.02929188136287 0.171957737423673 0.818732760658786 0.12974
0.12976 3.40789131313495 3.07960420508353 4.94395284149349 0.180499438553902 0.824499588626565 0.12975
0.12977 3.41493557224097 2.83474137289395 5.03971787166811 0.178868150420757 0.839780313509966 0.12976
0.12978 3.25188541265672 2.93175506998494 5.17814404338494 0.174402929661803 0.8382238838112 0.12977
0.12979 3.8946400836417 3.18379419688378 4.98761702795393 0.203247331500028 0.822906608915431 0.12978
0.1298 3.72048084137311 2.9189360144763 5.06390953693783 0.182540371397753 0.830143730357005 0.12979
0.12981 3.89833223764432 2.98771537677757 5.02991791950963 0.190171095808988 0.83994783717646 0.1298
0.12982 3.80418484745227 2.87744205193154 5.00750821997765 0.19309411531427 0.848426073134164 0.12981
0.12983 4.04036763172263 2.97019122155076 5.06535657630404 0.194000698443645 0.86768392502393 0.12982
0.12984 3.78200525466452 2.71114752386041 5.03054722834055 0.179250900319116 0.838030608547342 0.12983
0.12985 3.64229079438957 2.69748341789312 4.96381497086653 0.178277995429607 0.831042388513923 0.12984
0.12986 3.53339190289436 2.6840826023482 5.24966426535955 0.183554293986831 0.827146227381333 0.12985
0.12987 3.81160298586841 2.95199321236743 5.03296111757247 0.190386652985126 0.852645163843703 0.12986
0.12988 3.84778078406933 2.78276106111808 5.20649379474552 0.178758810514732 0.854388321044755 0.12987
0.12989 3.93061128138536 3.11069347056476 5.20453580120533 0.198020168675323 0.859325326348207 0.12988
0.1299 3.9803169834038 2.87721175835187 5.33575812220541 0.193194749724802 0.858092113307574 0.12989
0.12991 3.80106415627287 2.76697086692985 5.07468544722895 0.187899670661574 0.849103671700038 0.1299
0.12992 3.4471541183627 2.66473298433139 5.21133110537249 0.171993593504783 0.852712794453586 0.12991
0.12993 3.58770203854519 2.85766322696377 4.9945672841678 0.177469886681075 0.838117608938587 0.12992
0.12994 3.48605071487721 3.00452791627627 4.97295500944511 0.186235588007911 0.829400292414436 0.12993
0.12995 4.02141138886746 3.17890918251858 4.93042405687208 0.206309624169005 0.817054979423541 0.12994
0.12996 3.77979767177823 2.98778713365593 4.93772483901 0.186387789367772 0.832706885495061 0.12995
0.12997 3.5179109032364 2.7229054270474 5.16973302995482 0.172283630807752 0.839435020517894 0.12996
0.12998 3.50013997797793 2.59631163980785 5.01482672861417 0.172019389310372 0.834049438642789 0.12997
0.12999 3.55884647576238 3.2880564814674 5.04620570296763 0.193994949103414 0.831660054316192 0.12998
0.13 3.25903260757065 2.88705809668062 4.98888262919673 0.17417171356001 0.815139937440028 0.12999
0.13001 3.3055669566274 3.11963779348041 4.99703143448212 0.173248281912381 0.827577609469654 0.13
0.13002 3.64134448825409 3.10491499111513 5.24642478238559 0.199148232284549 0.868123779650618 0.13001
0.13003 3.84983107903513 2.99984999070469 5.25031643899254 0.200507008060798 0.865693083936457 0.13002
0.13004 3.56142822453524 3.11698736599092 5.08573770351419 0.187843012033033 0.83267433075001 0.13003
0.13005 3.26554405619881 3.21488591806977 5.06687122418683 0.178649571359779 0.832744935301026 0.13004
0.13006 3.53039876595246 2.75827252031834 5.01243682797334 0.174413757630138 0.835244690431899 0.13005
0.13007 3.49698326454509 2.89847734538677 5.08819657676191 0.182808995747115 0.841033661263153 0.13006
0.13008 3.74649230200958 2.77816552016164 5.14582459192177 0.187904419185851 0.84646581646523 0.13007
0.13009 4.05037016456234 3.09149216009637 5.0749673777419 0.191702987163011 0.859963916427941 0.13008
0.1301 4.0001988702932 2.90814196390222 5.14949561196274 0.195618314608518 0.823765876183033 0.13009
0.13011 3.62120479435717 2.387154798641 4.91144454645502 0.166720349854218 0.823478512995761 0.1301
0.13012 3.56199742510341 2.73174512960502 5.19148799357807 0.178077587045547 0.840087366475919 0.13011
0.13013 3.75018313475393 2.57542443475783 5.17376216721301 0.169085564521127 0.864335491699058 0.13012
0.13014 3.84200782446142 2.72727678521891 5.26955731312761 0.176979178501202 0.878834069479833 0.13013
0.13015 3.61918908964203 2.6149203562959 5.21919114489793 0.175348446533135 0.861835003493426 0.13014
0.13016 3.65273740784884 2.7095374251313 5.15917410190652 0.182673926475447 0.831019226064789 0.13015
0.13017 3.99411077644379 2.7643338196659 5.06399164519752 0.191631311968734 0.847021030042523 0.13016
0.13018 3.8699625866066 2.802326901523 4.87106505499727 0.182494748446212 0.827070264941165 0.13017
0.13019 3.59733953263309 2.57436858784935 4.99111401871973 0.169001001696779 0.836293738310084 0.13018
0.1302 3.67118380050947 2.70289630066906 4.91826154506865 0.178066069512013 0.838483584432066 0.13019
0.13021 3.50083151845019 2.54544767878093 5.03666582557165 0.17352124940901 0.796818248967362 0.1302
0.13022 3.73101336141719 2.97036848373933 4.92999505402741 0.188344590865009 0.813579150438098 0.13021
0.13023 3.68986688303346 3.05275847965164 4.99623047047877 0.196327046800004 0.828375934638871 0.13022
0.13024 3.5980741836487 2.90335615018868 5.12809377385379 0.171566049414581 0.859106953394079 0.13023
0.13025 3.4886326653345 2.67540952934523 5.1601363743898 0.169649731524368 0.832975165986135 0.13024
0.13026 3.76071707909053 2.95298009087464 4.88946519318599 0.187627257906958 0.816200904615097 0.13025
0.13027 3.84241355786691 2.99722865842703 5.0398859015557 0.188664983227956 0.864850062018833 0.13026
0.13028 3.97502224076121 2.95100984813096 5.03509768543733 0.195002255182538 0.849891180407504 0.13027
0.13029 3.64644910203278 2.80553387045248 4.87937202360002 0.178863082173518 0.821882335839191 0.13028
0.1303 3.62554153592656 2.83690283347507 4.95310109649895 0.184567525424746 0.843488777740166 0.13029
0.13031 3.65729586193391 2.76972066870708 4.9904307805356 0.175409596582739 0.862987857557394 0.1303
0.13032 3.93874248515752 3.01180763727665 4.89488642784704 0.198699186624683 0.822633866487605 0.13031
0.13033 4.07254831769747 3.12473777431665 4.84317699556636 0.200958865384758 0.828627820913991 0.13032
0.13034 3.80729454604142 2.90646817323148 5.0753050082364 0.190707987023141 0.837184194941017 0.13033
0.13035 3.52273726034775 2.50639504116395 5.10174284879513 0.180270496206627 0.816676990374675 0.13034
0.13036 3.62506418883982 2.7310481995761 5.18324077618815 0.175087260920596 0.854609722292121 0.13035
0.13037 3.80704518653811 2.71766723350119 5.3336684443572 0.181098624247173 0.860220636366537 0.13036
0.13038 3.76302169485953 2.82095354398055 5.11719440126163 0.189678709552024 0.850034161846474 0.13037
0.13039 4.02816760420128 2.86690469213738 5.00916439960924 0.184256185925013 0.854966266134281 0.13038
0.1304 4.02687832809456 2.92687419212215 5.00377339524733 0.19675719291743 0.835197345195657 0.13039
0.13041 3.91599605378232 3.05997397114093 5.05303071180638 0.193888401973242 0.860085386585517 0.1304
0.13042 4.05177217644073 2.73147908446683 4.89406874161027 0.190000075249883 0.842847217929661 0.13041
0.13043 3.64875733093596 2.60027566095487 4.9099117271508 0.178780394638852 0.822619998974078 0.13042
0.13044 3.5778756610267 2.4108789672756 5.21401387493445 0.165867057965364 0.846724219041897 0.13043
0.13045 3.72472811749327 2.55547751294342 5.06548721341335 0.180514108811201 0.828429527389507 0.13044
0.13046 3.78869823682093 2.64190594426973 4.88961168649458 0.183210938165704 0.84769176325966 0.13045
0.13047 3.78911078323138 2.74265872950417 5.05308548620598 0.181118927559751 0.831196167859509 0.13046
0.13048 3.59650099068606 2.9127356424072 5.03884384443961 0.188528417882531 0.844777618146222 0.13047
0.13049 3.51829746497694 2.80240468648435 5.24233893141158 0.176394454411992 0.858363313252894 0.13048
0.1305 3.49355498651455 2.95081720231614 5.08618808944017 0.182782631767424 0.833728835263094 0.13049
0.13051 3.56586307066825 2.99312254635514 4.93375311230761 0.189808465774423 0.806405200133769 0.1305
0.13052 3.4975514201109 2.67894683393972 4.99339362127937 0.174734367808825 0.821201981534094 0.13051
0.13053 3.96212234510975 2.78769619485152 5.00800791975335 0.187303515403292 0.843266356396049 0.13052
0.13054 3.99796647139217 2.64615817307345 5.14081699275901 0.182134116176032 0.857443610910572 0.13053
0.13055 3.99849118316798 2.65959402705464 4.9050228898204 0.186720220914935 0.850592885998678 0.13054
0.13056 3.99795778370531 2.75368174869435 5.01642026334958 0.187701109701791 0.862636179089706 0.13055
0.13057 3.7186697867231 2.76126916175096 5.24491124609021 0.176527794575363 0.859720810355458 0.13056
0.13058 3.66343759861711 2.52838179164815 5.23882585010155 0.177485510608408 0.8450013089139 0.13057
0.13059 3.65220442791217 2.82929417902886 5.23288220153196 0.177837992571567 0.867782524224215 0.13058
0.1306 4.00318081181328 3.05689984017302 5.05604684863927 0.207717545537264 0.830241779235445 0.13059
0.13061 4.21326680126916 3.08707652839808 4.88819746835449 0.2057861813015 0.814292923675105 0.1306
0.13062 3.94169253641868 3.02896057039189 4.84459686359345 0.196654474007928 0.832681521939751 0.13061
0.13063 3.61533416283084 2.40997281786882 4.86989826112253 0.168852311150782 0.811288860104715 0.13062
0.13064 3.75404488384387 2.79934061027733 5.09543587563019 0.184374640118305 0.836748281948381 0.13063
0.13065 3.63185892371715 2.73969738759736 5.07687457073528 0.180291035563277 0.83423716391827 0.13064
0.13066 3.54140092767263 2.98593842119737 5.13597206880013 0.181215007401077 0.853440701246734 0.13065
0.13067 3.61352099581857 3.12316659144106 5.21483373601752 0.190383973277619 0.874530538429446 0.13066
0.13068 3.77440902327676 3.0214995760385 5.07131986289021 0.192052386719972 0.819856606927744 0.13067
0.13069 3.58720958910603 3.07170560902681 5.10137475970134 0.184397164054531 0.842765692181506 0.13068
0.1307 3.73580268905845 3.18357488830722 4.9777265713876 0.197244359689581 0.837525817699074 0.13069
0.13071 3.62122668947981 3.01474127124077 5.19359950855081 0.183190242917748 0.8595657320078 0.1307
0.13072 3.51057084931742 3.04358940015786 4.95022781045063 0.18074639120138 0.825775390702034 0.13071
0.13073 3.4073488462824 2.70030267583424 5.0267840084905 0.175799673889763 0.811907934902937 0.13072
0.13074 3.73168861955447 2.80858924189916 4.89015582005567 0.189197514041176 0.792336871764974 0.13073
0.13075 3.62714444802377 2.80105468328386 4.94423076723356 0.175770454846409 0.829662255966855 0.13074
0.13076 3.71942099070004 3.17182500992769 4.97536174103154 0.193029405399905 0.837285518370096 0.13075
0.13077 3.97572801389714 3.04594454528703 4.98284919125152 0.200788486326029 0.828441053225678 0.13076
0.13078 3.56391023520608 2.62498621566311 5.07923404547235 0.176677798398336 0.853457811752223 0.13077
0.13079 3.92255394067597 2.85202094406536 4.95742182921578 0.184543097250628 0.85240218439434 0.13078
0.1308 3.88205537692537 2.47868871142766 5.09692270314566 0.181264597944161 0.83682066327321 0.13079
0.13081 3.66826575941992 2.49553399596591 5.2578358250584 0.171048137402097 0.860739066860242 0.1308
0.13082 3.72384985613883 2.75735313839566 5.19434901503607 0.183944218295004 0.840445643516199 0.13081
0.13083 4.10073633648222 2.62695760612815 5.23391287430559 0.182688253772982 0.89703096139305 0.13082
0.13084 3.99677676360204 2.76210329499557 5.29243443204664 0.189103662084046 0.866472303806841 0.13083
0.13085 3.78782815836763 2.60668513940616 5.2040232204404 0.172871854120705 0.876977078986312 0.13084
0.13086 3.52592929283218 2.74296303837937 5.30375944351054 0.18069138104011 0.857418892031135 0.13085
0.13087 3.58563228814783 3.01629389275004 5.04173253566219 0.187983963394847 0.812447699432441 0.13086
0.13088 3.73183176128596 2.95279832155098 4.95133996351586 0.179277198376965 0.825247876037003 0.13087
0.13089 3.84046343161169 3.28592091672862 5.05807965784725 0.202166698996109 0.855027548661633 0.13088
0.1309 3.65091146664169 3.25254255207131 5.19074150070914 0.193774706636707 0.860685339754415 0.13089
0.13091 3.70449656989786 3.45538176656679 5.14355792064567 0.20476334395246 0.846991127688032 0.1309
0.13092 3.94823622135821 3.19470193391988 5.12671723894592 0.208158720452533 0.867850863789933 0.13091
0.13093 3.59478198927803 3.07298014283216 5.20393164930498 0.181902672582736 0.886719401601762 0.13092
0.13094 3.27181230881511 2.9894047465502 5.09273374052886 0.18159212237736 0.823042758530459 0.13093
0.13095 3.57243114281881 2.79889490706683 5.04982368748147 0.18520105006839 0.834665159848687 0.13094
0.13096 3.58178415088555 2.96151999311426 5.26590913088896 0.178245558057412 0.877243104995883 0.13095
0.13097 3.69380120539949 3.00808807781507 5.15080298899863 0.192553849155515 0.839398066413501 0.13096
0.13098 3.57443730564872 3.13407663464622 4.9658987970114 0.178859969153807 0.84857979241896 0.13097
0.13099 3.61095876831422 2.823801128228 4.99082373353534 0.177951182067541 0.831550243996408 0.13098
0.131 3.63689624462911 2.85381298587267 5.03150583966406 0.182822856059896 0.83438215824932 0.13099
0.13101 3.69234489555117 3.03553903115838 4.92253955545978 0.193128393831102 0.813949460600548 0.131
0.13102 3.83294907507303 2.85091296901007 5.21261988224753 0.185257831247688 0.85856180170013 0.13101
0.13103 3.87694058588371 2.7892144755602 5.13970727925436 0.185105168139152 0.856188578506058 0.13102
0.13104 3.86674956500701 2.98856633136769 4.91683404690449 0.190897823182614 0.820442989092491 0.13103
0.13105 3.75917614133989 2.79773153974855 4.88716795422785 0.187234863414575 0.816273830170033 0.13104
0.13106 3.77991604002857 2.6867884821085 5.16854349821145 0.184524164842967 0.861868918998043 0.13105
0.13107 3.83956729759149 3.05804089237296 5.37227860066081 0.187567758278951 0.883369980687362 0.13106
0.13108 3.80170633598134 2.70142823859146 5.35530878152075 0.190056266360862 0.855512136800517 0.13107
0.13109 3.77533442140169 2.82827464402345 5.21815795963842 0.184321566528096 0.892770180054998 0.13108
0.1311 3.63733971176563 2.54738127372357 5.25030661301084 0.178647236435214 0.85069148803682 0.13109
0.13111 4.02153908430207 2.72397661340025 5.22808054146936 0.190776456560984 0.859265817522886 0.1311
0.13112 3.99815520188472 2.97019052855753 5.1800801445127 0.195645110205632 0.860958583923857 0.13111
0.13113 3.68365499077425 2.57107182741184 5.28067615061948 0.170513975526335 0.852119992408769 0.13112
0.13114 3.44645011192353 2.69404048558616 5.20454361291073 0.1730587049757 0.861567723348917 0.13113
0.13115 3.7782952652617 2.80352624378471 5.12740878623195 0.191852174719098 0.863813127436381 0.13114
0.13116 3.81246124752345 2.84418742035376 4.9522980631692 0.190677010979259 0.819556979963889 0.13115
0.13117 3.88350814087526 3.02623920362337 5.19230273593927 0.197421328767156 0.878058768956311 0.13116
0.13118 3.80820268372833 2.99498867587248 5.07094374715071 0.189945117481553 0.849352763819967 0.13117
0.13119 3.71064629491767 3.07739271242029 5.01010721267877 0.193378707887193 0.804625307911321 0.13118
0.1312 3.33135075852732 2.9602303675358 4.98423847228215 0.181695550583118 0.812346829956087 0.13119
0.13121 3.32954014436733 2.984374301008 4.88699567565039 0.181863885141646 0.817424468623775 0.1312
0.13122 3.60211698981826 2.96845719562056 5.09965001005657 0.181164649161158 0.835078543091955 0.13121
0.13123 3.77434802512051 3.15079157320171 5.07821774918736 0.191530802672557 0.84936422622739 0.13122
0.13124 3.63382243068893 2.92035956345384 5.28499602276004 0.181771801494135 0.861771235368802 0.13123
0.13125 3.56417362099531 3.1275094398512 5.1658518405286 0.187382644128126 0.860241759209553 0.13124
0.13126 3.56695658797406 3.35147770727337 5.24119773489203 0.192950389668136 0.867124654176614 0.13125
0.13127 3.6543832752837 2.86584085865907 5.30335022911915 0.188855529759371 0.867787854058932 0.13126
0.13128 3.88761703423475 2.68847991948391 5.25445228266979 0.181476308195146 0.859125225675644 0.13127
0.13129 4.15270776640818 2.84958157361571 5.08720186344821 0.191306310324066 0.873905887587304 0.13128
0.1313 4.18887985285709 2.76024903586782 5.00190631301411 0.198697486013763 0.863896110307985 0.13129
0.13131 3.98500480464243 2.89914782004922 5.01285779446785 0.187924128663964 0.854458402012212 0.1313
0.13132 4.03209206822493 2.82154734912316 4.967294796383 0.189986675188244 0.87033442084192 0.13131
0.13133 4.05426405663593 2.89036762284733 5.15697462034425 0.193937507437065 0.85587281439018 0.13132
0.13134 4.10011335425263 2.72619963002621 5.21947835869523 0.195159776253909 0.848598859378416 0.13133
0.13135 4.03777453467852 2.33000111834322 4.97653094697098 0.177464911997119 0.845408520841181 0.13134
0.13136 4.09364337758397 2.87910593615548 4.92617384160384 0.193664786958353 0.845197049160139 0.13135
0.13137 4.25784038980131 2.55358596782747 4.98409726214484 0.198371252078609 0.829090388601222 0.13136
0.13138 4.3064737731258 2.76213927363801 5.04379172730524 0.19999193228208 0.86443926238313 0.13137
0.13139 4.03003320554485 2.60700338429735 5.29236235036514 0.18166200708088 0.854555288487791 0.13138
0.1314 3.86317541252448 2.67875669244733 5.2774906992678 0.17415072752796 0.865042659872363 0.13139
0.13141 3.44063816044297 2.69232441818843 5.25603321588293 0.173236416512974 0.830786330870442 0.1314
0.13142 3.59312741361137 3.06137789550056 5.15850359043395 0.188316773094494 0.846941308762069 0.13141
0.13143 3.5539694041996 3.26181773558473 5.02945605747867 0.187284343106188 0.834509077791165 0.13142
0.13144 3.49048485175358 2.9176748964209 5.18632859192788 0.179901169743837 0.861164980132356 0.13143
0.13145 3.43005225514778 3.02946141772776 4.93063352907776 0.178927318437651 0.813417821931142 0.13144
0.13146 3.61354561964177 3.10112055197571 4.93853526113548 0.188655142781841 0.827905836017624 0.13145
0.13147 3.5872406495502 2.7055506518323 4.87429603213173 0.174738325937421 0.818306965532518 0.13146
0.13148 3.71504323552271 2.9368276303041 4.98355576755369 0.191007356567245 0.824453625244024 0.13147
0.13149 3.86505023115566 3.05752497098112 5.28751264483956 0.194228956686734 0.894442242025341 0.13148
0.1315 3.55493861986075 3.17329442343586 5.19676862785419 0.188449326353508 0.839402653918307 0.13149
0.13151 3.61285607055711 2.8896567918269 5.02078573173341 0.184174129516904 0.840594204742823 0.1315
0.13152 3.69878665012806 2.78961659782477 5.29321289188633 0.176583611951901 0.873145326144614 0.13151
0.13153 3.30411051328222 2.6626973643831 5.4546695445788 0.160189219818888 0.880981217589053 0.13152
0.13154 4.04818761346465 2.77913090817478 5.43667661199709 0.19125475145397 0.916137931262263 0.13153
0.13155 3.95371325361034 2.94667185154512 5.38715118870939 0.194195697494157 0.896813263744943 0.13154
0.13156 3.78500713363103 2.95017907647911 5.05282981507393 0.187615055491676 0.864839341128194 0.13155
0.13157 3.99593019674453 2.92125012656624 5.0118599915611 0.198187330099425 0.82305003852399 0.13156
0.13158 3.9952084062036 2.86533110737002 4.90733860748058 0.193347745290792 0.831752859259812 0.13157
0.13159 4.10340347100703 3.01436776739977 5.14893163133205 0.203413970901208 0.88116019940692 0.13158
0.1316 3.854973610115 3.1305129972084 5.07547903049112 0.198426993348513 0.864518143858152 0.13159
0.13161 4.20341362495977 2.95935479845959 5.07057700683159 0.201225950189104 0.862386294148755 0.1316
0.13162 4.11525693108483 3.04653527997622 4.98693715375063 0.197907729391199 0.834517208170443 0.13161
0.13163 3.81832365581381 3.28332619948945 5.07097462719525 0.199841330328001 0.848145545365071 0.13162
0.13164 3.90901441274354 2.91760949008533 5.2116403603236 0.195158708337913 0.871827564540832 0.13163
0.13165 3.68227428705604 3.08489824865948 5.28320069409316 0.18533456167563 0.895680441177369 0.13164
0.13166 3.82453254290733 3.17547381755052 5.11964083095371 0.19611723142152 0.831820233678036 0.13165
0.13167 3.41395255883609 3.13519416101172 5.09338708711171 0.180096795622894 0.840197358112822 0.13166
0.13168 3.51122769844704 2.71246005242583 5.04952873752209 0.167869525989697 0.841042933192344 0.13167
0.13169 3.37464540564022 2.83192265237174 5.25508609998406 0.170195770196615 0.859842563090321 0.13168
0.1317 3.79718663896119 2.70035451148205 5.11822040036122 0.180212056797802 0.837318239749271 0.13169
0.13171 3.78203280957712 3.06755610584346 5.19089317797171 0.190982577098929 0.868221037511935 0.1317
0.13172 3.84676735192852 3.11559012073376 5.34570995154685 0.191522035784332 0.901053112887215 0.13171
0.13173 3.78099913115576 3.13486311644595 5.26239071753981 0.203194150797354 0.855758340790987 0.13172
0.13174 3.62451720321993 2.97403679396283 5.17926058344223 0.184752894071378 0.850842880451953 0.13173
0.13175 3.15805718605679 3.04897912075619 5.11422008094654 0.167652786298578 0.829083700919682 0.13174
0.13176 3.26212156925806 2.74265767252244 5.07228344778727 0.166797896109936 0.836773797539097 0.13175
0.13177 3.78648337337472 2.88081721347162 5.22104845012788 0.184059146955244 0.870457991690676 0.13176
0.13178 3.63460766608666 2.86480784751644 5.24687684530915 0.186494552370565 0.871057557460458 0.13177
0.13179 3.93379940942221 2.67738933771912 5.32320295121835 0.185240422209492 0.868986194688991 0.13178
0.1318 3.98122813580009 3.15872868335045 5.24712092187011 0.199210853756806 0.876567388438786 0.13179
0.13181 3.90384639960018 2.9915777448821 5.12874926665134 0.200125399213254 0.839885955315789 0.1318
0.13182 3.92498113521774 3.08810457304103 5.21673913206901 0.20034271198865 0.883501473899789 0.13181
0.13183 3.82456108328528 3.13088323172666 5.23139216341617 0.199013344658834 0.86333461415117 0.13182
0.13184 3.9076397465407 2.99104022237869 4.99567270918982 0.19741349351593 0.845975659509486 0.13183
0.13185 3.97353675250056 2.92112091699752 4.93160239811543 0.192740518765411 0.835008850464688 0.13184
0.13186 3.83056713238927 2.89622654156557 5.03864456436864 0.185922143199052 0.844859619981901 0.13185
0.13187 3.78563948356601 2.87945320683793 5.1497267290903 0.179056594280235 0.860174544267818 0.13186
0.13188 4.11259176355971 2.80941112741975 5.31966798124788 0.191115202160853 0.879833983763516 0.13187
0.13189 3.72901977023934 2.79250294049938 5.40407844313787 0.178575463609114 0.883070847344258 0.13188
0.1319 3.67253345824877 2.75435114831414 4.98705126249491 0.19112667222894 0.809550180683089 0.13189
0.13191 3.46352127850673 3.1393817060929 5.15262803387624 0.177589723457018 0.859199969289672 0.1319
0.13192 3.70871141523937 3.16668386516418 5.12790572974146 0.198800302654261 0.841540531697646 0.13191
0.13193 4.35667976676756 3.71692729001941 5.1155669029479 0.231365831806587 0.88360542791257 0.13192
0.13194 3.89776074264615 3.03034440729326 5.27457065856439 0.189623767319967 0.892962407057544 0.13193
0.13195 3.36425210169092 2.84863735852775 5.24869294584343 0.174228884350826 0.852327741017836 0.13194
0.13196 3.22645366365681 2.81138879163705 5.28393530671418 0.170078500506953 0.867995423677425 0.13195
0.13197 3.58679811042065 3.09057781350439 5.24180712606167 0.193820445862633 0.845641273978401 0.13196
0.13198 3.90344327998427 3.15908837454203 5.20228040443081 0.193367529523986 0.857319923109037 0.13197
0.13199 3.61829341869957 3.07202660208786 5.12752811578827 0.177759144524585 0.869439214138176 0.13198
0.132 3.94838238105906 3.10925411016874 5.110538759427 0.19597164118174 0.848386205441813 0.13199
0.13201 3.58524142746017 2.57490224851131 5.21523093765323 0.170350557873062 0.857790340118277 0.132
0.13202 3.76337712157812 2.82590232790868 5.15055103630159 0.186891435207589 0.841206214759631 0.13201
0.13203 4.02478264005571 2.69303413716844 4.98182828958703 0.194952027568697 0.827710601283564 0.13202
0.13204 3.91530603571611 2.93676243362417 5.14013666219381 0.187033058013149 0.861127228292938 0.13203
0.13205 3.98718149656407 2.69132961746046 5.27627321891367 0.190619758970222 0.868252581126423 0.13204
0.13206 4.15619234011835 2.9000055483071 5.2076333303067 0.203492927715085 0.867345541530969 0.13205
0.13207 4.15767882602857 2.79940653771374 5.22958040717289 0.190604334758549 0.87398578051019 0.13206
0.13208 4.01914820990595 2.88059233719238 5.03274650677819 0.198079910912048 0.851274724924029 0.13207
0.13209 3.88397822101378 2.6834049322767 5.18683217737516 0.184728171317033 0.849456229268579 0.13208
0.1321 3.63716248869554 2.75143335549588 5.02607008936961 0.171682528196528 0.854850633475469 0.13209
0.13211 3.88577499735469 2.68837464956327 5.08323777914633 0.193093010822032 0.823032329249678 0.1321
0.13212 4.07020952808114 3.03131564928472 4.93832724573866 0.198402407062161 0.846229895540686 0.13211
0.13213 3.88877993479744 3.07282744908411 5.05130927036828 0.192323643402267 0.863600797532675 0.13212
0.13214 3.73872526257595 3.01400839373307 5.22157454230792 0.193310638641994 0.876025487665674 0.13213
0.13215 3.98690653906042 2.93012778594382 5.09147410618938 0.19470450614038 0.85231195894508 0.13214
0.13216 3.40464148132643 3.11964477293095 5.14222740763975 0.183118482964875 0.857966245013549 0.13215
0.13217 3.58041246623087 3.29794015923558 5.34253196078913 0.191070555178942 0.887339464163973 0.13216
0.13218 3.97545438860897 3.25560480655429 5.22771884396739 0.20429197904834 0.893577110645935 0.13217
0.13219 3.95227981071765 2.93267696724997 5.29092493301098 0.197267018354079 0.863705452403437 0.13218
0.1322 3.95611384850469 2.72074414814451 5.16893791077538 0.187904084994911 0.867582101971676 0.13219
0.13221 3.63364810106324 2.87177138746109 5.08101002517743 0.17448785070833 0.831023869431134 0.1322
0.13222 3.58960045398028 2.80374949477619 4.9751516013978 0.186905017059784 0.80414068419662 0.13221
0.13223 3.58857418923474 2.98498746859155 5.27419486865523 0.183143479642676 0.852967591252429 0.13222
0.13224 4.06123154847602 2.91767834343686 5.25741449160398 0.195007260742168 0.879220946163037 0.13223
0.13225 4.0065035828604 2.9949168767771 5.26236957866864 0.195959947942802 0.872595230457685 0.13224
0.13226 3.96925452399704 3.06271613161661 5.16993637989785 0.194619833032103 0.878602816625604 0.13225
0.13227 4.26005334263185 3.12079097343173 4.89781723809033 0.204970706131592 0.845686388673434 0.13226
0.13228 4.28190355724468 2.97273810760026 4.97964533438384 0.213681950347826 0.869363082986196 0.13227
0.13229 4.0111759717563 2.91824541919724 5.12491909078683 0.192961027019395 0.848640604971916 0.13228
0.1323 3.99355699636031 2.55766355589963 5.12124796463545 0.185419213751538 0.865675535492504 0.13229
0.13231 3.91566296275224 2.78744587798254 5.22774283085419 0.186071685613823 0.874635737659469 0.1323
0.13232 4.09144755669377 2.89512060687135 5.10083741689266 0.203098708870926 0.856682555735768 0.13231
0.13233 4.13267339576451 2.59308123409855 5.33402685403628 0.188409421838372 0.875652145389561 0.13232
0.13234 4.28711366271919 3.07173064881091 5.31236726512872 0.216417765951395 0.905978881316061 0.13233
0.13235 4.22897646858636 2.91003841557386 5.31465658577117 0.200758987231654 0.869279030296076 0.13234
0.13236 4.10844455693242 3.38128127896676 5.3244883835522 0.209867147297144 0.913409314986508 0.13235
0.13237 3.74586984862332 3.26337034881179 5.25485176412945 0.197498440912027 0.878639892723048 0.13236
0.13238 3.72999714245945 2.66997343914324 5.40972675732102 0.182788399089185 0.889248263312686 0.13237
0.13239 3.58390927092776 2.69054007815153 5.33804060080979 0.182663560774871 0.82480263030781 0.13238
0.1324 3.47584861830244 2.96499682630238 4.96452983207744 0.180154655227669 0.820748300487558 0.13239
0.13241 3.69676884245426 2.99065735538243 5.17743372757803 0.188624450885357 0.862594949161076 0.1324
0.13242 3.72668388129675 3.03578523784232 5.29748544010869 0.185481927207821 0.866661971903523 0.13241
0.13243 3.6552272232674 3.17852645317699 5.05994480399338 0.191476698393962 0.843949283336893 0.13242
0.13244 3.55708435387414 3.29051726265482 5.17459067442849 0.19446835466068 0.852862850666308 0.13243
0.13245 3.81793215517272 3.22066566316689 5.08304457709361 0.193787157165723 0.865089520789983 0.13244
0.13246 3.70794983372752 3.03292712167926 5.24885871153074 0.184098152684054 0.866310673029231 0.13245
0.13247 3.64369799735284 3.13991839518475 5.46071180180526 0.192270757238984 0.894381153970313 0.13246
0.13248 4.06520336468861 3.22322135304596 5.3210290436498 0.195239110565878 0.919443739798462 0.13247
0.13249 4.04531379903523 2.94251578759783 5.15999114755723 0.196876257294825 0.853483943053093 0.13248
0.1325 4.10926087596003 2.85583617035539 5.15149657926698 0.197344739388064 0.857919675032799 0.13249
0.13251 3.64619905922939 2.50973013543108 5.10605452303817 0.173630549179285 0.843605065987853 0.1325
0.13252 3.64973624124411 2.57133887933883 5.40115220796217 0.179557069900873 0.882929064688869 0.13251
0.13253 3.88501395838536 2.74050817206984 5.37537982015158 0.183630566792051 0.895714328619415 0.13252
0.13254 4.0476776036036 2.91071208360616 5.29362514383816 0.193432440389722 0.897220908769727 0.13253
0.13255 4.17356116440903 2.90879769203517 5.25623745572206 0.196371922438082 0.868817984934832 0.13254
0.13256 4.14724965535354 2.84665095582103 5.35553822066892 0.201148101928239 0.890602773914433 0.13255
0.13257 4.27253406488693 3.37752784993093 5.12501120323921 0.208987418332368 0.878535498428501 0.13256
0.13258 3.95098846737195 3.0163778934963 5.1819689575551 0.196695417081741 0.86103884145917 0.13257
0.13259 4.209694925309 2.92308350033702 5.15762241806006 0.201707523472115 0.867081041962581 0.13258
0.1326 3.77711793215964 3.05335372690882 4.98742394739484 0.184772327688007 0.828533514650793 0.13259
0.13261 3.8468190135465 2.90739827992549 5.07018420006536 0.193011383769497 0.841688039489048 0.1326
0.13262 3.85435181824603 3.08582681320598 5.09859004668866 0.193924356582336 0.873125649052252 0.13261
0.13263 3.7810959969018 2.92025700577148 5.39791521355962 0.182847877076793 0.886634632252331 0.13262
0.13264 3.7162258556157 3.00299730212682 5.43503949595441 0.191944935658559 0.892466539326811 0.13263
0.13265 3.75275230137884 3.10391022063636 5.37771923588032 0.187037977465907 0.888220296999129 0.13264
0.13266 3.7456237744328 3.25343713672821 5.24083857271784 0.197642511641484 0.864277120277915 0.13265
0.13267 3.59656801948971 3.15147162042355 5.09655362674621 0.187413691724408 0.841080721806796 0.13266
0.13268 3.7502816613081 3.32037666062426 4.91147486012313 0.205347511477229 0.835460972716912 0.13267
0.13269 3.90213758162984 3.23339520217338 5.18711480756341 0.206587532840734 0.866452785014358 0.13268
0.1327 4.12206405234678 3.29957549205919 5.10883181642615 0.209289712843484 0.863442073117924 0.13269
0.13271 3.8624599054086 3.04518629237896 5.27432806794617 0.195021398167804 0.881642461797786 0.1327
0.13272 3.82587115168322 2.95995981321941 5.33120510660463 0.199883677862135 0.877149726172847 0.13271
0.13273 3.73326470001288 2.65856001240421 5.25706672153182 0.17118067214694 0.872307651498509 0.13272
0.13274 3.96643631198471 3.11852016062699 5.34965127097753 0.199895273531556 0.887551363053169 0.13273
0.13275 4.02444678775148 3.11791790830734 5.26961598945173 0.190373985912397 0.892371907552577 0.13274
0.13276 3.70912759877298 2.93403997131251 5.23845731049712 0.190455814449076 0.83712594362852 0.13275
0.13277 4.25347630947252 3.2208584006476 5.23877782094055 0.210072538806688 0.882382728010834 0.13276
0.13278 3.84715277706183 3.0820224328611 5.21267017170004 0.194145455428391 0.882332374771859 0.13277
0.13279 3.77603941146629 2.72776235719696 5.39580120010393 0.184855706071191 0.878547264687245 0.13278
0.1328 3.81974262112996 2.76641066241971 5.41215455975431 0.18728083054826 0.891021095607496 0.13279
0.13281 4.03604078444413 3.00854133293388 5.57572333082119 0.206334554961918 0.9131691502525 0.1328
0.13282 3.79062014373141 2.65504835934427 5.3073905224786 0.182493837298025 0.867362339034907 0.13281
0.13283 3.73335233520178 2.87144844433491 5.07030346497014 0.176993606243507 0.869493868935991 0.13282
0.13284 3.92386244126724 2.77976946226897 5.23135907920609 0.197538853013729 0.863879239791863 0.13283
0.13285 3.88565486623928 2.84410609867475 5.21694517986458 0.194079613731182 0.854830919426123 0.13284
0.13286 3.86985191792589 3.37806801264334 5.28710511432596 0.206852034685451 0.893784124251697 0.13285
0.13287 3.88789773264045 3.37438215754324 5.12519078607428 0.206003752978482 0.869185217844927 0.13286
0.13288 3.82599371886676 3.17959472430021 5.13548016069887 0.195768115899681 0.832134476369974 0.13287
0.13289 3.54513567878115 3.08004437806235 5.19625599005687 0.177778675371362 0.873067184237894 0.13288
0.1329 3.78158305598268 2.72797178652085 5.32020260038817 0.175729203691477 0.878370672440237 0.13289
0.13291 3.98554537628894 3.26467683010895 5.24837907848624 0.2027440387408 0.880818446237525 0.1329
0.13292 4.15665691951733 3.41003775493627 5.39569262632822 0.214399952491451 0.904871646665051 0.13291
0.13293 4.01931241181693 2.96970299943233 5.16767702788976 0.192762179531544 0.868504552796892 0.13292
0.13294 3.99618291833934 3.01148668187104 5.13852329418187 0.194863989319687 0.857275110150672 0.13293
0.13295 3.66309533704232 2.8761344641267 5.26168697773987 0.186564921459661 0.858811185259152 0.13294
0.13296 3.88839259092315 2.92714880845883 5.15040589862915 0.189873267258939 0.871628545908053 0.13295
0.13297 4.1726100731379 3.08041796031815 5.19655030121914 0.206988034600447 0.883182229989543 0.13296
0.13298 4.21405432830851 3.01019197110755 5.22063883237879 0.199545925597957 0.894136779128826 0.13297
0.13299 4.26214357174874 3.35909183774096 5.12195444635388 0.216875885529913 0.891371550764718 0.13298
0.133 4.24851407029918 3.38209629964595 5.05463918807403 0.213549161602581 0.879240759685878 0.13299
0.13301 4.32026090179388 3.02148070143027 5.42116832202024 0.19903855043283 0.915720607598848 0.133
0.13302 3.93450238860603 2.67776420530864 5.42025843834788 0.18101492917062 0.886072161758526 0.13301
0.13303 3.71862163927284 2.91830497284063 5.3204280319892 0.195607565295596 0.865503882155944 0.13302
0.13304 3.72085800098117 2.91046966118126 5.44440535547623 0.1919072084021 0.875354056909828 0.13303
0.13305 4.0057352237346 3.06890476441473 5.20939151248502 0.196908152742408 0.889489857320181 0.13304
0.13306 4.05078795584358 3.03210660870873 5.27616415303674 0.191771193691174 0.881966847869378 0.13305
0.13307 3.70831782972892 2.78593053020783 5.15767730187588 0.17811599170487 0.853413211448267 0.13306
0.13308 3.88351931810459 2.71318015835677 5.3252313827124 0.182175874347107 0.884931656624539 0.13307
0.13309 3.72197409357802 3.22601943156279 5.38341710791856 0.199519372293599 0.880289578245355 0.13308
0.1331 3.84016097637827 2.88359114398398 5.25534600889518 0.191733305485748 0.866475808075456 0.13309
0.13311 4.08803090186285 3.02953514098902 5.20430630729855 0.197944895820444 0.907124255053719 0.1331
0.13312 4.13564749595778 2.81661825036571 5.29908100936024 0.198489776413025 0.881347942495247 0.13311
0.13313 3.84961491897013 3.11756123426917 5.24865433814784 0.198252228027704 0.867547156141988 0.13312
0.13314 3.7686392259923 3.11971395189105 5.2051765140469 0.184134269529262 0.886170540643682 0.13313
0.13315 3.75800786265177 3.13913889927316 5.07823642864838 0.196376380325878 0.849973292216634 0.13314
0.13316 3.787087244814 3.02076919149472 5.23580063787117 0.190987682073087 0.879522671497052 0.13315
0.13317 4.06697663247947 3.09766208791039 5.3237943881505 0.195326186193706 0.887262315538606 0.13316
0.13318 3.87437383211871 3.17521471765868 5.11796332046091 0.206711085046629 0.838055230078666 0.13317
0.13319 4.00595196191814 3.27020038358714 5.14804331111511 0.200082686182261 0.870427231807992 0.13318
0.1332 3.89451597057422 2.74610829300588 5.06661897824321 0.184724658707148 0.85618198014603 0.13319
0.13321 4.07638492336383 3.02047582765709 5.16209192149575 0.194576515834572 0.886243461106447 0.1332
0.13322 4.47000203312258 3.26823131285469 5.17965377310978 0.220577629856997 0.884643874089502 0.13321
0.13323 4.13370544600106 2.8742724916121 5.59369422708709 0.197119105396019 0.933307106888301 0.13322
0.13324 4.05740780235079 2.91394600780231 5.57455203921538 0.198526882035423 0.909377087566296 0.13323
0.13325 3.96693071874372 2.89930035861834 5.35611594617475 0.188965305111358 0.899086136743041 0.13324
0.13326 3.97710548047312 2.87414929365235 5.11969093339218 0.187726241188042 0.866149804536436 0.13325
0.13327 4.06633949378806 3.07612529067233 5.21327939159441 0.204164203468968 0.879632430758512 0.13326
0.13328 4.08818637636132 2.98685685571311 5.451684553175 0.198377666028875 0.921957274132891 0.13327
0.13329 4.24166070320073 3.22361987805376 5.38032111698221 0.209419257489881 0.910844238218923 0.13328
0.1333 4.31623967944366 3.19922222619926 5.38474762316213 0.214472390128006 0.914616257368967 0.13329
0.13331 4.38630438246454 3.3036322316732 5.34741983753898 0.220059253343564 0.882629559893427 0.1333
0.13332 3.71840735762052 3.12147613293348 5.09166452826561 0.200943988633249 0.821321507890834 0.13331
0.13333 3.60479521813039 3.19741222720692 5.21411985626634 0.196970330678433 0.884385461919286 0.13332
0.13334 3.62079323468634 3.24521240116805 5.28787246467312 0.184771489407084 0.888272496897908 0.13333
0.13335 3.74004017559035 3.12957665353962 5.13116635052654 0.19029345889455 0.859786393507849 0.13334
0.13336 4.02265490998258 3.35673008502413 5.26953502233203 0.204113971532287 0.898979140809861 0.13335
0.13337 4.19289498197864 3.56814576892228 5.16308984731921 0.212330627026245 0.884897878491405 0.13336
0.13338 4.08044716701375 3.3716077931341 5.18379886695058 0.21375824240716 0.871342706043734 0.13337
0.13339 3.39453351497276 3.26023338101938 5.38282520979902 0.181720890642301 0.896054403309565 0.13338
0.1334 3.35702180496381 2.98349372340144 5.55288009062116 0.17939696549194 0.904135807378825 0.13339
0.13341 3.75416186913264 3.05816596554496 5.50111950559795 0.193379494994063 0.915214749001765 0.1334
0.13342 3.77450722987347 3.06934611435904 5.27662844463507 0.195356840424941 0.843725360313318 0.13341
0.13343 4.02469011356083 3.01332056736316 5.10276859060301 0.19513228430845 0.862650647405237 0.13342
0.13344 3.93543218414777 3.08901557576647 5.22170034592978 0.193875754842509 0.874151895170696 0.13343
0.13345 4.16682568738299 2.86540078538457 5.27418042883456 0.195601068118406 0.886207757358256 0.13344
0.13346 3.93086582330503 2.99688928750482 5.41724687559013 0.188923369302029 0.914763730949597 0.13345
0.13347 3.71465131902339 2.99511789872784 5.27418810895596 0.195327635080724 0.860198969631957 0.13346
0.13348 4.00894915338634 3.27542092846278 5.19068954616052 0.201567093287868 0.886342317713482 0.13347
0.13349 3.80064177188363 3.21469586534032 5.3939408704985 0.190953801572354 0.917821524452505 0.13348
0.1335 4.08655116364903 3.02224752214413 5.439382727826 0.199099504117703 0.885266908899031 0.13349
0.13351 4.08895679563854 2.82273009741926 5.39097230180416 0.18537175437161 0.922403957740756 0.1335
0.13352 4.3568157941337 2.8957886941778 5.23273320324182 0.198118305595158 0.904708519618635 0.13351
0.13353 4.27274443478741 2.78131469729669 5.27625595933534 0.198834547727802 0.899684875822645 0.13352
0.13354 4.17723530142374 2.92169005280818 5.24878482757553 0.2005441699586 0.877940030655997 0.13353
0.13355 3.95975107265454 3.12188900807555 5.21021817255256 0.192729488452747 0.89891026164991 0.13354
0.13356 3.90642120230203 3.0158421202482 5.23667608473718 0.186118431257297 0.887029949773239 0.13355
0.13357 4.10779109532014 3.34860992730764 5.15950103298209 0.206919772193519 0.862088479024107 0.13356
0.13358 4.24842775149025 3.44767960939539 4.95405082887826 0.221323158236205 0.864350874617226 0.13357
0.13359 3.93549985712381 3.08089274181638 4.96337765393543 0.195512455512545 0.836870579965015 0.13358
0.1336 3.57666421766101 2.90327441560376 5.21376422410522 0.181812530201756 0.854004003960189 0.13359
0.13361 3.83786705253345 2.92913319111193 5.20677667423162 0.183555199377299 0.877176066450234 0.1336
0.13362 3.94333095827344 3.05008807992668 5.32962972662263 0.194286586793681 0.900665355003409 0.13361
0.13363 4.01094585119308 3.07139752679724 5.45253472494051 0.199950739415329 0.911416040776793 0.13362
0.13364 3.61676823402137 3.46424757570053 5.43346302251512 0.204262730990911 0.860609521895247 0.13363
0.13365 3.60126692753262 3.71751559564511 5.19540962833287 0.213806221695171 0.852171618442347 0.13364
0.13366 3.63225555641014 3.39123149334559 5.11831278144341 0.200572813342596 0.88109215095103 0.13365
0.13367 3.78798210294989 3.1638922332865 5.5419928872388 0.192862407963788 0.905589591748852 0.13366
0.13368 3.9051517094275 3.36400294212372 5.33979955209182 0.204342355249419 0.893851640746385 0.13367
0.13369 3.89368293690254 2.96876824781729 5.16378356482565 0.192073978963074 0.863404263295699 0.13368
0.1337 4.08957569040349 2.78165195855997 5.18761748634973 0.193078267427408 0.864859796531631 0.13369
0.13371 3.82848890442279 3.11597273321458 4.98812227973127 0.19197197395811 0.844768311996252 0.1337
0.13372 4.16104987340463 3.57754002784888 5.38085565896251 0.224315867537698 0.897737752293235 0.13371
0.13373 4.28201708142299 3.13045439018835 5.32234653739464 0.208909910100005 0.915002390422007 0.13372
0.13374 3.73435351459318 2.8580046345991 5.39797784479148 0.187789186573754 0.870427570072601 0.13373
0.13375 3.89801287688166 3.01985180430273 5.33901833673173 0.19630133538427 0.879577584289848 0.13374
0.13376 3.89197141890531 2.97282288163509 5.24658531568727 0.190975679302523 0.895423236574814 0.13375
0.13377 4.28590441093536 2.80024696651156 5.25140769286617 0.19898001893107 0.870176570652312 0.13376
0.13378 4.2493637448319 2.9210045848266 5.41750723356243 0.196534349016514 0.905073678887183 0.13377
0.13379 4.1396722924254 2.99184153278785 5.37309797440725 0.196523420927141 0.894292214428899 0.13378
0.1338 4.00427499758697 3.02295437462146 5.09327890801328 0.198657867718716 0.844857038077223 0.13379
0.13381 3.94907007476564 3.34851372832476 5.00716677865959 0.202485998369686 0.863759623172996 0.1338
0.13382 3.90549538508426 3.4800252703519 5.28708292804464 0.199137688003427 0.926849245182914 0.13381
0.13383 4.1461490541866 3.30197802292208 5.4640820835339 0.212638751481285 0.893433421615803 0.13382
0.13384 3.79086651666707 3.1352079922318 5.34114023847333 0.198523725422391 0.877240140022439 0.13383
0.13385 3.54654221085529 2.81469268777631 5.32328381258698 0.177772780879593 0.865744397597565 0.13384
0.13386 3.682263323929 3.17190966442744 5.27026995378157 0.189990430459228 0.864694075181966 0.13385
0.13387 3.65121412450619 3.17896538038561 5.22981115149471 0.191760939300617 0.865526991722487 0.13386
0.13388 3.53819449523336 3.41634972917144 5.28763565293482 0.196369609044629 0.890002911500152 0.13387
0.13389 3.97871218153746 3.25250811934858 5.35819748470582 0.20528188182584 0.872646000229513 0.13388
0.1339 3.87529174001086 3.07733583933427 5.11872950814898 0.200688761431573 0.85516420583833 0.13389
0.13391 4.02949685552292 3.32524553156056 5.29189685325772 0.208106542731032 0.867150479732568 0.1339
0.13392 3.95740924166308 3.49805622275487 5.2227265568992 0.207291155185789 0.891596008870956 0.13391
0.13393 4.13552750939808 3.24795037609922 5.33066343565217 0.210223639265352 0.885027576268825 0.13392
0.13394 4.06801798325387 3.13945793018852 5.2605545573665 0.203074816092423 0.890199551709896 0.13393
0.13395 4.09250259069651 2.92155946587066 5.30997802339324 0.193928949067901 0.903887688425111 0.13394
0.13396 4.03863556089019 2.99079754802962 5.19342272997038 0.197086539448455 0.857092132621028 0.13395
0.13397 4.0310352914437 3.102031568596 5.08694233566201 0.196913026060716 0.871743405796831 0.13396
0.13398 4.39175482851981 3.070043651984 5.20989894375737 0.209036504450082 0.901385187843605 0.13397
0.13399 4.24943475329663 3.06252070791066 5.37190038485592 0.2082391021532 0.895237990180941 0.13398
0.134 4.13384542779416 3.05324387865267 5.33963349103179 0.205993663153909 0.876839658155609 0.13399
0.13401 3.92470843417235 2.87776746479583 5.21476558097771 0.193870370557019 0.886761484426854 0.134
0.13402 3.9534601608344 3.01390769912513 5.20343405980196 0.198703506888392 0.853021634266507 0.13401
0.13403 4.1486989854188 2.93604373658643 5.27208745966395 0.207723342014789 0.900127789736375 0.13402
0.13404 4.16653063515709 3.04116940141655 5.25938756249223 0.191060987769107 0.903713454603754 0.13403
0.13405 3.95368185540786 2.90139039141019 5.38007702510034 0.197392179847145 0.883978463898138 0.13404
0.13406 3.74025643022803 2.82667800493479 5.25836389668129 0.181534493008534 0.864991890647801 0.13405
0.13407 3.55628962026782 2.78878190754171 5.35686738530912 0.175282977988988 0.890202924397461 0.13406
0.13408 3.87359841609134 3.0266666312822 5.31930926321613 0.206296204135976 0.86692421961012 0.13407
0.13409 3.87031702273462 3.19787559227714 5.26025388955248 0.198212940059923 0.905329490091785 0.13408
0.1341 3.86727732558859 3.09948538419253 5.41080643556475 0.191547006143393 0.891776421170726 0.13409
0.13411 3.8139649008893 3.17804523282961 5.29329927362417 0.198778643904035 0.861380752509567 0.1341
0.13412 3.61498521318458 3.27368586418868 5.30126538013158 0.188837633537526 0.893335532234057 0.13411
0.13413 3.691514033778 2.75114947316286 5.17248815270457 0.184698599687584 0.841849706140263 0.13412
0.13414 3.94383311647417 2.92175262150524 5.28916344351241 0.19533800457899 0.852924670157383 0.13413
0.13415 4.29448942105944 2.90215168598869 5.07133685018872 0.195851245501846 0.882935274275076 0.13414
0.13416 4.23526238338638 3.10040182697451 5.15292949209798 0.205080740124689 0.877652221226322 0.13415
0.13417 4.02652934201065 2.93758913764803 5.16365823672986 0.199135223939779 0.860521056706099 0.13416
0.13418 3.94974128843177 2.96352022182238 5.1493079699803 0.187605327105011 0.879712242153097 0.13417
0.13419 3.9264750162388 3.04249205678684 5.35854562653955 0.204597713948275 0.895235453409417 0.13418
0.1342 4.15892442820308 3.24919902901431 5.35285638466156 0.21054315757624 0.899646755109852 0.13419
0.13421 3.8704957543624 3.15391907224609 5.28216585423428 0.196707316617048 0.907676764091987 0.1342
0.13422 4.1306582732037 3.19776595130744 5.30341964226419 0.204461746950007 0.873832912523393 0.13421
0.13423 4.17532202091907 2.8407444903047 5.19880937734737 0.197717104285914 0.877930045026878 0.13422
0.13424 3.99724725399735 2.9466043189413 5.44012503034754 0.189008844154846 0.898479022639484 0.13423
0.13425 4.12443588910019 3.05571202088423 5.44549774422572 0.202664775157262 0.899270271740763 0.13424
0.13426 4.17934529630778 3.07341260738381 5.31170229036631 0.198400191008866 0.892503017094599 0.13425
0.13427 4.00975747973117 3.31476032587388 5.35598452921292 0.202993554299914 0.906627763299989 0.13426
0.13428 3.65144257199518 3.15064333796625 5.2362625355832 0.195249980092272 0.851996090880756 0.13427
0.13429 3.89317344343922 3.11779340630435 5.20239019507018 0.198822161709514 0.865287977561473 0.13428
0.1343 4.03506246766094 3.42195564626133 5.20374267712347 0.215106000386207 0.888410621355462 0.13429
0.13431 4.13812354101112 3.17729284604484 5.23618997770485 0.20856123365398 0.883087001691824 0.1343
0.13432 3.96150869027553 3.10879176262021 5.26731831332168 0.185700194811787 0.919728195316052 0.13431
0.13433 3.89103089667208 3.10704165354902 5.16487995927048 0.195789772883168 0.874680282660362 0.13432
0.13434 3.81537060087264 2.9089307475737 5.21738603581575 0.192519918466662 0.853286882161819 0.13433
0.13435 3.74877143728513 2.79086657326945 5.32489666411512 0.181088319012767 0.881936898144902 0.13434
0.13436 3.75461239885843 3.00685649287363 5.19505292388433 0.190620213541599 0.856760918912284 0.13435
0.13437 3.69001807727315 2.97075269273763 5.21250800093478 0.186616315398412 0.852714261692003 0.13436
0.13438 3.89663044915622 3.50331081429314 5.20992741683145 0.205254738959331 0.895437407621275 0.13437
0.13439 4.07857376660159 3.13587107303396 5.29814711108362 0.20402835520502 0.873970276439593 0.13438
0.1344 4.18908207883458 3.21719129908689 5.2549359742931 0.202094091654896 0.91434430521316 0.13439
0.13441 4.0921586419636 2.93359214874777 5.27674835625653 0.199552641451142 0.876716441496117 0.1344
0.13442 3.98899495561677 2.86473051839314 5.3413316106031 0.201935483265396 0.88113089697795 0.13441
0.13443 3.88868443032215 2.85274459933881 5.46956488939447 0.184869581134792 0.893838904230096 0.13442
0.13444 3.91690953474479 3.06878101698943 5.4871079907466 0.198500806542344 0.89789396870155 0.13443
0.13445 4.14970349855906 3.00842746312533 5.40623026708235 0.203517516453588 0.904009643821967 0.13444
0.13446 4.11336809765313 3.14940188659203 5.31188388738106 0.212752463270219 0.870185689183082 0.13445
0.13447 4.06176444896681 2.87477623783626 5.44915136751527 0.19051326547161 0.903680398678217 0.13446
0.13448 3.9139074506873 3.16970648340167 5.44517022292011 0.19902042430185 0.926794452499171 0.13447
0.13449 3.95179616188785 3.0319565345615 5.54096089514048 0.201117096563703 0.899578972187959 0.13448
0.1345 3.98797253468879 3.37871770412227 5.25165539907593 0.211606183980165 0.886340428629667 0.13449
0.13451 4.0158111825327 3.45121148496826 5.29952354121879 0.203155054809452 0.89090919687797 0.1345
0.13452 4.1377702219795 3.58710883620992 5.22656225558727 0.222169205678236 0.897491080774643 0.13451
0.13453 4.1434242149174 3.50029765377923 5.25966681181184 0.21568610756856 0.886773047262379 0.13452
0.13454 3.91074671577981 3.18288935005069 5.12645602737215 0.198593975041364 0.848231647984654 0.13453
0.13455 4.03701365420912 3.24086855088413 5.12064201399735 0.205797828536512 0.863830084761134 0.13454
0.13456 3.78212117117178 2.95146666067035 5.31103292912166 0.193138688902796 0.855278818350473 0.13455
0.13457 3.77779446329503 3.13728867595235 5.42295342160351 0.194208350294766 0.886039177615003 0.13456
0.13458 3.827653722099 3.36467000989288 5.37829692135054 0.200185600020133 0.912439883432868 0.13457
0.13459 3.65681130749107 3.15548734909513 5.34203730018101 0.187806737720193 0.885880168815811 0.13458
0.1346 3.99661756814472 3.36909782529368 5.28656152991957 0.208963421675296 0.875418234650168 0.13459
0.13461 3.76688272310911 2.91766862007891 5.4321968347514 0.182508524474415 0.894551036429201 0.1346
0.13462 3.75719400854559 2.81510566550998 5.37162473587738 0.179062727201227 0.886514765867901 0.13461
0.13463 3.8799733435691 3.05702288416928 5.24339396651542 0.199167185759792 0.891535201857727 0.13462
0.13464 4.18394092076392 3.32004723755508 5.20968279950463 0.203793928865792 0.898917976326081 0.13463
0.13465 4.13480381335192 3.19858067517852 5.11235694312253 0.205964353188893 0.8529641090997 0.13464
0.13466 3.82632717421316 3.05951929107646 5.11970883403717 0.19447177469846 0.864359346398492 0.13465
0.13467 3.84351286698235 3.05973014471043 5.28577920513509 0.191852919925497 0.876673642397994 0.13466
0.13468 3.93955755505163 2.98852871253969 5.3600520472663 0.19545558769046 0.903809902304483 0.13467
0.13469 4.10886970368623 2.91414253658386 5.53397687360966 0.19988573958864 0.917600885826138 0.13468
0.1347 4.09291318745347 2.94316179338298 5.46835268802402 0.190162020749935 0.899352760351751 0.13469
0.13471 3.9997381451514 2.75192718765359 5.35699224680314 0.188154847827528 0.884267579962536 0.1347
0.13472 4.03831943128748 3.11040684313694 5.10788021290765 0.206523559305481 0.875080264045806 0.13471
0.13473 3.82439587402858 3.11235642813778 5.47246833191957 0.191138662575418 0.878604518799844 0.13472
0.13474 4.24042928548169 3.14750377290251 5.58481022328947 0.208847262795489 0.905074373640773 0.13473
0.13475 3.93432700956004 3.2868793992892 5.33714331540676 0.204235351385106 0.889962110751707 0.13474
0.13476 4.00331612224417 2.98880390734664 5.24659611179005 0.197912377111479 0.87867103022447 0.13475
0.13477 4.08420761491936 3.10997393062453 5.24915713302898 0.205297559844642 0.8621515700164 0.13476
0.13478 3.88228476201351 2.98708092098114 5.20737409713962 0.185095428744571 0.890598351201025 0.13477
0.13479 3.93186830815976 3.01872080380453 5.46096116046145 0.203255205234794 0.901745440026123 0.13478
0.1348 3.86515006727893 3.2663983203425 5.4519212123107 0.206104410116166 0.886259429890189 0.13479
0.13481 3.77251363877975 3.57429654449361 5.22810066285443 0.200779634209064 0.904408278094646 0.1348
0.13482 3.95640253492416 3.3746458151041 5.20951640145092 0.207935880506535 0.863102550576216 0.13481
0.13483 3.85384016860414 3.56198123062599 5.20091740914858 0.207131064347287 0.882934622701536 0.13482
0.13484 3.92283387933458 2.95802864065325 5.41036476760909 0.183958678562912 0.894832655860159 0.13483
0.13485 3.87208908927641 3.0704663705118 5.29638586772047 0.19466929702981 0.887503835004191 0.13484
0.13486 3.93801367763184 2.94700512068286 5.43900037454504 0.197305575589528 0.889378371424616 0.13485
0.13487 4.0284573229781 3.29727952631876 5.31611089521809 0.199497859423831 0.903562899614672 0.13486
0.13488 4.26979815954129 3.46171738480284 5.37907378458889 0.216398242112232 0.9069700149519 0.13487
0.13489 4.0322503189743 3.54993710756962 5.41798456373856 0.215452257150221 0.922291658453651 0.13488
0.1349 3.91880469241671 3.12579791581417 5.23370987816611 0.202806844241832 0.867008428269421 0.13489
0.13491 4.30556519194868 3.03350629415834 5.12128034745222 0.215980974138498 0.881788113604858 0.1349
0.13492 4.16791681115961 2.96896800638902 5.18705920973629 0.198752969912845 0.888630844407107 0.13491
0.13493 4.13291253586172 2.6601712095849 5.3055865517751 0.191642311143087 0.888962848299941 0.13492
0.13494 4.20072907457473 2.83299663193185 5.49782094663945 0.192048261021237 0.931996191137577 0.13493
0.13495 4.25197692284767 2.99484567577379 5.29403049067656 0.199378484262818 0.890018305258011 0.13494
0.13496 4.43557261584515 3.42759278162977 5.34772271353821 0.214140449009674 0.905870140324931 0.13495
0.13497 4.06024897204843 3.49542702183585 5.38767155604329 0.208202974194853 0.903302256691741 0.13496
0.13498 3.82264629525532 3.06369039809038 5.43093991719779 0.188003193961206 0.910732814325356 0.13497
0.13499 3.99302085810899 2.78665436906764 5.37180044941738 0.18816954686949 0.894006089081551 0.13498
0.135 3.92250722097979 2.9903735573394 5.27280516950783 0.197270939909242 0.881334166031966 0.13499
0.13501 4.3619790955227 2.81833607333731 5.19215033845436 0.207768231447488 0.877750832741456 0.135
0.13502 4.2499197158039 3.13947443761914 5.30874677550774 0.210194916755963 0.885751840037121 0.13501
0.13503 4.11346284799531 3.44025393902623 5.22584679661466 0.213279249986449 0.887635084141456 0.13502
0.13504 3.65694655538641 3.36761453243263 5.45181214916188 0.196690965167721 0.902290880344752 0.13503
0.13505 3.74283344694007 3.28869579203759 5.58767792541986 0.201563725647041 0.902506065502851 0.13504
0.13506 3.71884305168676 3.12536711812497 5.37949465334704 0.192907787378378 0.884490241101685 0.13505
0.13507 3.67710709817396 2.942537168212 5.2776699964217 0.187967831774405 0.873136385017709 0.13506
0.13508 4.13075727797974 3.28044121863923 5.36961546628126 0.214083851886406 0.903486836138858 0.13507
0.13509 3.97795621587797 2.95872856472329 5.32631182591338 0.184958122349859 0.898629972283614 0.13508
0.1351 3.82977969097193 3.13892020259188 5.18062917125394 0.19292514860882 0.880597834830099 0.13509
0.13511 3.87780635241533 3.2178168362819 5.11510356352912 0.197971490271599 0.859718302138732 0.1351
0.13512 3.72222568323647 3.02133920498014 5.30250858490949 0.193494792108454 0.865735533590875 0.13511
0.13513 3.98485466202465 3.3025834257529 5.32180043907268 0.207521268870308 0.89125909790348 0.13512
0.13514 4.15051610714833 3.2237079246585 5.26477657566768 0.201578600722782 0.909045157154698 0.13513
0.13515 3.88307446398235 2.9107940915523 5.28550695271023 0.181854059045391 0.921569808150313 0.13514
0.13516 4.02705984026482 2.78330875594021 5.42630774598333 0.192481880499728 0.875262265806397 0.13515
0.13517 4.26436584689287 2.83787636403292 5.35724048622631 0.198009138472001 0.88965170739581 0.13516
0.13518 4.08747344991477 2.97814274945058 5.33152025822845 0.19903440018508 0.89687334116581 0.13517
0.13519 4.19715822715485 3.42240375874052 5.36004349274864 0.215346187819777 0.900453295147543 0.13518
0.1352 4.2915989363312 3.1361544135547 5.20623351842553 0.208184988017796 0.881228584558632 0.13519
0.13521 4.07052644157238 3.08117300581084 5.40428557530001 0.203484901652962 0.905522489652449 0.1352
0.13522 4.19137895621417 3.18963766762472 5.5135853318507 0.205287547298332 0.911703896385972 0.13521
0.13523 4.25839939152597 3.23263059099642 5.29731142230174 0.210969669787419 0.888792773225424 0.13522
0.13524 4.23610335240342 3.06883211563341 5.30463588394906 0.210265492287711 0.895221136101618 0.13523
0.13525 4.24952639841585 3.34852501469507 5.20554504524262 0.216634598950959 0.882282441134772 0.13524
0.13526 3.94636401838212 3.22364005953991 5.40742256069752 0.205417370198057 0.909891476990203 0.13525
0.13527 3.97908250693836 3.34640784781982 5.52877713539991 0.2106427508849 0.910442914207871 0.13526
0.13528 3.67641697414724 3.16127325841407 5.19286961868309 0.196801655342206 0.862879530166924 0.13527
0.13529 3.81029849099438 3.28477042120524 5.2547481077248 0.1949532767436 0.890104569230879 0.13528
0.1353 3.98196714025596 3.48170330077105 5.2124844048359 0.210356799554408 0.880539088512063 0.13529
0.13531 4.02748174679836 3.25339991532324 5.26026918753769 0.198864127213641 0.896302998516806 0.1353
0.13532 4.24037765696378 3.18733412462194 5.55378740153584 0.207058153373048 0.922625475176592 0.13531
0.13533 3.84071835299613 3.11586171035809 5.38744621030302 0.192277304576546 0.889488737514184 0.13532
0.13534 3.91560584433324 2.95744713517461 5.43121288236136 0.202799343744882 0.882973276342433 0.13533
0.13535 3.76583541355298 3.29590311364659 5.45785947401951 0.195286595941249 0.915638686756696 0.13534
0.13536 3.95785438555338 3.09684657148357 5.51201663086048 0.197544441262222 0.932136744291333 0.13535
0.13537 3.79547852452453 3.02611354873559 5.42490703201766 0.192205730087694 0.871964020925125 0.13536
0.13538 3.99275141465469 2.98339343723896 5.43460232503021 0.188157506485109 0.929709374631302 0.13537
0.13539 3.95632134544817 3.16181766251953 5.19455903315287 0.199948399853808 0.88452793103234 0.13538
0.1354 4.04997172656481 3.13433050721772 5.25081679825831 0.20859334184222 0.881777203729108 0.13539
0.13541 4.32287956050203 3.36405178013532 5.40486636407855 0.212696355257066 0.91592808645245 0.1354
0.13542 4.01069668721695 2.93352552472942 5.29735294488135 0.20159262300996 0.866012080099865 0.13541
0.13543 3.86158746494291 3.2265259404981 5.36183306841316 0.197783518483699 0.938987313847746 0.13542
0.13544 3.74801905917409 3.17677144008586 5.34701493592275 0.194265287109596 0.869669797139248 0.13543
0.13545 3.90558562955069 3.12623152650957 5.25142386483469 0.195566478779087 0.861802399347132 0.13544
0.13546 3.99894470423882 3.09250584159064 5.52468543201592 0.196818676302434 0.902095874176835 0.13545
0.13547 3.85870736386992 2.98994993182919 5.24131042121295 0.186662104572616 0.905193470977175 0.13546
0.13548 4.22803846072367 3.15211838298929 5.29219412224132 0.215485746282382 0.885770404521802 0.13547
0.13549 4.06268732792344 3.12250829097892 5.46326802338152 0.204007114421648 0.904496444954562 0.13548
0.1355 4.02584847848037 3.18732124204856 5.3232387725232 0.199801728009587 0.883053815079057 0.13549
0.13551 4.02439677037531 3.14797954283295 5.19859900532711 0.200575007593693 0.885685924562243 0.1355
0.13552 4.0804845169676 3.2876306342717 5.47819118114319 0.20597593377099 0.918636156699866 0.13551
0.13553 4.00079137819102 3.45093599310694 5.4968157013835 0.202343647251938 0.9193900754627 0.13552
0.13554 3.96391016211154 3.16402367035631 5.43438842394166 0.202261585141963 0.925216892533178 0.13553
0.13555 4.1504129398376 3.0944446660022 5.40138903631648 0.204278506975031 0.893351836240792 0.13554
0.13556 3.99148885327112 3.23071058048559 5.22315752814627 0.19668407882913 0.909499123740751 0.13555
0.13557 4.25527168809295 3.40831514259971 5.24106758119651 0.212282430625361 0.887993356684779 0.13556
0.13558 4.22213419713955 3.54130602760538 5.2493946156282 0.218441360675215 0.902532745681224 0.13557
0.13559 3.97048307564066 3.39347800893992 5.38755012112678 0.20920523255985 0.891028583372986 0.13558
0.1356 3.9249762202803 2.9867587712124 5.24789828146281 0.190458201781922 0.890413368718832 0.13559
0.13561 3.88919249132047 3.20076604429861 5.24942620417426 0.200509063568738 0.882731246537825 0.1356
0.13562 4.04215742026191 3.15047051781574 5.45494414506003 0.20789564086109 0.893935362337188 0.13561
0.13563 4.19872753351343 3.09706241000264 5.39306640991054 0.209057036625044 0.88964702694333 0.13562
0.13564 4.21131525278493 3.09392645834778 5.41977995298442 0.204243688203365 0.924011839254448 0.13563
0.13565 4.12560643426911 3.0139851235516 5.63506885687933 0.200747171490909 0.945753609110566 0.13564
0.13566 4.16259496797601 3.21687259617987 5.52093823734646 0.196032920332878 0.929353540772722 0.13565
0.13567 4.08563955546159 3.08912489249077 5.47117916757801 0.204806045411578 0.922547896889781 0.13566
0.13568 3.95744487672788 3.50713850625463 5.19705434867988 0.208189032665076 0.885636211209062 0.13567
0.13569 3.95653482030385 2.99415441148682 5.16735449219909 0.188984621467447 0.853888225417612 0.13568
0.1357 3.97558341714894 3.21146404104336 5.20481465153408 0.208554375817847 0.862255591750033 0.13569
0.13571 4.01789621920087 3.09010998342302 5.37438965636503 0.197283589971755 0.923910939677114 0.1357
0.13572 4.13598317531144 3.06220016179202 5.42191939158379 0.205316883284667 0.913473338240965 0.13571
0.13573 4.16462806086854 3.28510894529934 5.47882032034865 0.210591758366321 0.900483789455902 0.13572
0.13574 3.7773609420113 3.14845580925374 5.35919761677582 0.187176549215382 0.909159837964606 0.13573
0.13575 3.69523624560535 3.11025133794162 5.36279732992672 0.190936109493581 0.871425113323287 0.13574
0.13576 3.84668996785368 3.20693504963192 5.4766694784448 0.196095902210759 0.89747609703622 0.13575
0.13577 4.03094475602504 3.30352587165328 5.47125747114293 0.210027972649925 0.894970166297153 0.13576
0.13578 3.93923966264766 3.24286853611925 5.42584531443933 0.197429522025006 0.917238771554175 0.13577
0.13579 4.11627153305019 3.08620591551466 5.35831341555656 0.198097665796916 0.901407981952822 0.13578
0.1358 4.08288808270438 3.13576964385616 5.4338181532193 0.200358478048323 0.911876274592422 0.13579
0.13581 4.26938281679992 3.53921333600349 5.3529769643943 0.222384028012453 0.895146686075461 0.1358
0.13582 4.27003141560151 3.49712355604339 5.35840921410008 0.215759833184657 0.917636844779594 0.13581
0.13583 3.94446520601928 2.85429018683287 5.43449182669057 0.186633347200096 0.884655066800332 0.13582
0.13584 3.91838033745584 2.8650033492035 5.30989916569376 0.191446729053206 0.907052321316234 0.13583
0.13585 4.12020860508376 2.84793418168545 5.1950545048967 0.193708380294041 0.870735879783131 0.13584
0.13586 4.50126616337286 3.21928848685322 5.15515463946153 0.221508559492327 0.88566984171364 0.13585
0.13587 4.47159823160747 3.56555832771107 5.25538323432733 0.224246262214845 0.911952267304029 0.13586
0.13588 4.31121175695559 3.44088752764854 5.38100563174605 0.211725984367616 0.911116112127486 0.13587
0.13589 3.97080199286004 3.15624518628282 5.16980597529075 0.196365787759794 0.875131483072566 0.13588
0.1359 4.08586240909225 3.27789003985797 5.5292131425692 0.201387456399323 0.905808980479618 0.13589
0.13591 4.05589643598161 3.0901296819044 5.42294635570253 0.200661979364257 0.914054532710139 0.1359
0.13592 4.10347243302325 3.08357644434101 5.42620613066056 0.200700206894408 0.896634269460662 0.13591
0.13593 4.09105336072713 3.10092602876061 5.34191829360192 0.197837979984616 0.900486842913533 0.13592
0.13594 4.21917630225537 3.03895272057209 5.39357388224851 0.195660226067429 0.942172483038108 0.13593
0.13595 4.48055335430412 3.53397599610756 5.57349091764028 0.233741590290082 0.931117204846304 0.13594
0.13596 4.23732741662728 3.36027980522589 5.57329279559278 0.207729368187405 0.954559716073307 0.13595
0.13597 4.06655971036928 2.83152211275562 5.54862985546681 0.199636779741492 0.905714774727224 0.13596
0.13598 3.56333299928166 3.05336485130244 5.43481472249917 0.180994143202347 0.887971237805004 0.13597
0.13599 3.82194307510444 3.19985007219595 5.46833342383347 0.192457603970334 0.899129358786286 0.13598
0.136 3.9613387161555 3.41074094147212 5.59383814954627 0.210870382467771 0.913282977813269 0.13599
0.13601 4.30920530219883 3.64312491490687 5.34489703867093 0.223393917847171 0.913951185834016 0.136
0.13602 3.96671628442748 3.36849379962963 5.09456132004164 0.207471230521347 0.871191590574314 0.13601
0.13603 4.14527730529415 3.27642077489221 5.17230302016569 0.214618798381139 0.857403515047531 0.13602
0.13604 4.02063182382758 3.05641723357984 5.28888345044668 0.196964881724232 0.89355704128303 0.13603
0.13605 4.13508063982377 3.48827119381486 5.57123378309376 0.211353885690333 0.933580116431403 0.13604
0.13606 4.17641623313978 3.4434225149111 5.53383514118334 0.217853951199283 0.905798107406333 0.13605
0.13607 4.04177557960535 3.07235957373303 5.56884754707213 0.200797535230207 0.917181753665507 0.13606
0.13608 4.0903947358867 3.06584402136658 5.53406045137507 0.195551231993256 0.913609789982514 0.13607
0.13609 4.3485490773578 2.97286474131364 5.4294063820975 0.199749655488919 0.9113005902494 0.13608
0.1361 4.19262974085614 3.25358714474223 5.485958522776 0.213826621383502 0.915834339793291 0.13609
0.13611 4.21103598129513 3.02491500602922 5.47271008568327 0.199336534132764 0.912754243684581 0.1361
0.13612 4.29274074771685 2.97026627999991 5.43676943251901 0.199183444512088 0.914454863706028 0.13611
0.13613 4.34110057187615 3.05903067586509 5.34357645396102 0.213794785289231 0.896027657066186 0.13612
0.13614 4.14321713696684 3.44430535053268 5.09938979705926 0.215744099601394 0.886704410221804 0.13613
0.13615 4.00330945869366 3.13570342531395 5.31127024240775 0.200022327365966 0.877295126063915 0.13614
0.13616 4.104551240774 2.91722209181281 5.32797298953382 0.200379201061924 0.881953188550723 0.13615
0.13617 4.08917173091152 3.06159888717878 5.48044003359907 0.194951418445972 0.9144756527474 0.13616
0.13618 3.89667588183692 3.16759035946533 5.18845295705889 0.199906345051322 0.86964876233192 0.13617
0.13619 4.31685306461005 3.62211041072718 5.20506985367126 0.223014140460815 0.893178281226102 0.13618
0.1362 4.42965577495874 3.38321051025356 5.4952985430992 0.219980063895492 0.941895573202675 0.13619
0.13621 4.29435250907982 3.08554593796436 5.64172948188095 0.202256389275999 0.943533247530815 0.1362
0.13622 3.93268734765986 2.9761363071176 5.67971816511521 0.191794629351829 0.938316617269886 0.13621
0.13623 3.98927281437832 3.45455651404776 5.58787598513977 0.208205516984217 0.933182583144235 0.13622
0.13624 4.12578871625621 3.37258521534737 5.51995002252797 0.212657917599859 0.913279385672996 0.13623
0.13625 4.34365985048904 3.59892126498764 5.35271692308843 0.218565486313292 0.925285533666602 0.13624
0.13626 3.92638563407454 3.01549395131648 5.27592722634836 0.202874500752196 0.895594541857119 0.13625
0.13627 4.16748646806609 3.11633100677174 5.29914051933287 0.201856188757484 0.859367330927144 0.13626
0.13628 4.0963987761418 3.27824496923959 5.15107107803779 0.21134035154057 0.863639731731897 0.13627
0.13629 4.37931571702425 3.47878172211387 5.15694032078288 0.225472521478449 0.886294558833421 0.13628
0.1363 4.24159059856771 3.51030476929432 5.33029025436294 0.211935392334673 0.921725632598099 0.13629
0.13631 3.84763238978285 3.23071693414623 5.57433607805826 0.190858368803045 0.922829545887621 0.1363
0.13632 3.8991783439283 3.03909295685351 5.33934436301928 0.194672348431754 0.879652688530082 0.13631
0.13633 4.03389619052683 3.14605609603887 5.56800334214344 0.202038276479896 0.941021428332878 0.13632
0.13634 4.41010559990016 3.13120327942331 5.6668982819132 0.215000783494633 0.941122953685963 0.13633
0.13635 4.31283938885174 3.01514276977189 5.42836545870728 0.208118832811284 0.900805414641871 0.13634
0.13636 4.18299507554716 2.8913662841665 5.42500382432273 0.196098681844626 0.917981597468538 0.13635
0.13637 4.12432784202951 3.07255855246196 5.30837344489129 0.199200833744883 0.886849215727457 0.13636
0.13638 3.91365783437241 2.95996427799256 5.18357809882538 0.188974879720627 0.881522406158194 0.13637
0.13639 4.20240917915685 3.43373692880113 5.50431627221188 0.209030620103984 0.931289376380386 0.13638
0.1364 4.14858966281502 3.12290831063072 5.32081036642206 0.204698586288367 0.890483863206768 0.13639
0.13641 3.99976999508444 3.07993267155375 5.39156984020859 0.197824208258573 0.896704591986265 0.1364
0.13642 4.07329239890335 3.17640437703249 5.36856479467981 0.201269949560452 0.909382689563679 0.13641
0.13643 4.08651685806285 2.80196679062632 5.46333458083957 0.194729857678428 0.899438765943276 0.13642
0.13644 4.32859174716664 3.14688241121313 5.48789509948752 0.208675164899614 0.914853178147143 0.13643
0.13645 4.0101568996156 3.10292247533746 5.39980727461641 0.195809387315667 0.89383050267487 0.13644
0.13646 3.94779566638472 3.12702249854127 5.44048067412354 0.192371908212387 0.908887699094586 0.13645
0.13647 3.94192225649182 3.34758886471726 5.31929605293633 0.208851712905714 0.89841135491055 0.13646
0.13648 4.04815506113026 3.49420966374332 5.4313544739991 0.21197717274774 0.909466680160552 0.13647
0.13649 4.22740015831264 3.44833951315738 5.29948044881784 0.207480053105419 0.917155075789141 0.13648
0.1365 4.24001366398551 3.10205339932857 5.35948873408553 0.202435363342726 0.885115306239891 0.13649
0.13651 4.14860893723196 3.02961068471546 5.43613026238316 0.20330282802168 0.88463296160787 0.1365
0.13652 4.20665177579766 3.23371531272615 5.34352824891198 0.20827101597135 0.895188637315494 0.13651
0.13653 4.18248323828013 3.49829975593181 5.29521325134017 0.216180281517584 0.895994348047102 0.13652
0.13654 4.29115842789055 3.50505202658478 5.38413031432322 0.223457495832073 0.917727509116413 0.13653
0.13655 4.04314438055649 3.43845740769978 5.44663405431136 0.207395764912099 0.922742987365691 0.13654
0.13656 4.04041526396676 3.34489877651999 5.31473415985626 0.214901404500254 0.889387338172545 0.13655
0.13657 3.8772191857205 3.35214894511133 5.52961359257248 0.200030719702564 0.925633687159873 0.13656
0.13658 4.0561576942329 3.23466578294753 5.58594835558615 0.200346543283415 0.921683197555726 0.13657
0.13659 4.34531653751439 3.23137586126257 5.58210899421098 0.213496384538785 0.937345658352708 0.13658
0.1366 4.22861697216903 2.95168700764851 5.56181030262018 0.202318916344268 0.921743836941209 0.13659
0.13661 4.16842491375967 3.00561037942431 5.57048874138555 0.206176466318398 0.910605720556162 0.1366
0.13662 4.05510886483215 3.41701310977374 5.32798373706512 0.205981157585414 0.920474610511279 0.13661
0.13663 4.32341277616915 3.45948680635069 5.29835262330696 0.221017320231204 0.907059526784093 0.13662
0.13664 4.3357701850124 3.59930416894155 5.33865914696615 0.221525858858146 0.934407487102168 0.13663
0.13665 4.10906573297821 3.54618663183836 5.33724396753414 0.210657195756439 0.898788179950137 0.13664
0.13666 3.85533764574049 3.12834388993484 5.48247792275784 0.197431734241707 0.889860044025613 0.13665
0.13667 3.9672079773927 3.01971612329035 5.57051263350222 0.195733695683013 0.922443236532378 0.13666
0.13668 3.98752470117372 2.79961832870493 5.43252035521423 0.193614852821403 0.885258862778169 0.13667
0.13669 3.88189625746783 2.87280866491322 5.62851702999174 0.193205734309733 0.919952391868326 0.13668
0.1367 4.26250448682956 3.08142427885208 5.52929469618053 0.207664200590939 0.92469534243779 0.13669
0.13671 3.99199978052893 3.2038194014623 5.44141954953826 0.199102280386461 0.934408737195565 0.1367
0.13672 4.08684210118434 3.18089335607175 5.43476158462174 0.205939082083707 0.901827705691176 0.13671
0.13673 4.2768542713427 3.34588534606681 5.32980869761536 0.214832568788395 0.892210798779122 0.13672
0.13674 4.02985510225267 3.12771747618288 5.31445412879332 0.192599093400635 0.908481019843673 0.13673
0.13675 4.14461176518182 3.46669892880552 5.48908338002519 0.21540098327676 0.915200950517093 0.13674
0.13676 4.09598557998775 3.38694127900734 5.31832933130054 0.221134309726367 0.860566284086563 0.13675
0.13677 4.16394344305243 3.13009847465079 5.46605368798427 0.200547814950891 0.932587783607683 0.13676
0.13678 3.96507805277637 2.94725461934863 5.64951621169811 0.192702171233413 0.921158188600122 0.13677
0.13679 4.26780369651982 3.20115178027644 5.5194929149875 0.221701263070082 0.896359071052021 0.13678
0.1368 4.10720025016502 3.14772495328795 5.56259168436957 0.205794333892642 0.917875708125678 0.13679
0.13681 3.74974530617605 3.39036619328504 5.45971824786256 0.196510284299871 0.905689707173159 0.1368
0.13682 4.08412897034042 3.333445956167 5.60317031572128 0.208271888669912 0.925966551476103 0.13681
0.13683 4.35605789676482 3.63052069154777 5.5576293027587 0.229613770245468 0.931176099581193 0.13682
0.13684 4.09232915323323 3.42692384438502 5.35324540291299 0.212417302834594 0.914787136296055 0.13683
0.13685 4.35873729667284 3.3921991424244 5.32301888103341 0.220648646822542 0.882748601998468 0.13684
0.13686 4.4617323190102 3.40184899483858 5.41676945285847 0.221720592334674 0.902945214864823 0.13685
0.13687 4.3709006736117 3.24983128276314 5.46559785424284 0.215813898414951 0.92291770751889 0.13686
0.13688 3.98730945876942 3.00222711411604 5.54839581459105 0.197057984774401 0.915996678433871 0.13687
0.13689 4.21654390876158 2.97591347205938 5.40353253088708 0.203406106262474 0.920481098357296 0.13688
0.1369 4.02283918634 3.08964586614527 5.43250519584169 0.196819711315984 0.920379316179389 0.13689
0.13691 4.09333309281495 3.15241227422154 5.48471725448624 0.208894047458748 0.90973887541014 0.1369
0.13692 4.09109766766198 3.0725731925709 5.5294976232727 0.202184955056068 0.919911126473707 0.13691
0.13693 4.19438455435098 3.34373225554699 5.44933484095694 0.207579019425792 0.938476717255357 0.13692
0.13694 4.11926798820926 3.30476932209003 5.37344691548282 0.208072066036352 0.901056589234802 0.13693
0.13695 4.01906293467282 3.26950072715285 5.46766508315329 0.213460972182583 0.904114951780293 0.13694
0.13696 4.17265787955773 3.3064798394837 5.4389861549749 0.209363017277299 0.910751178323092 0.13695
0.13697 4.29723708936585 3.09798855585653 5.36880444169666 0.21045775442856 0.909074905129017 0.13696
0.13698 4.02754599746924 3.1225275955739 5.53164743885722 0.208252885094471 0.913865341287003 0.13697
0.13699 4.13929800637872 3.22559871307827 5.59532990480248 0.210531597593757 0.930684405580276 0.13698
0.137 4.11003569036349 3.15068604912928 5.48485586257573 0.199762227012589 0.910075747040913 0.13699
0.13701 4.1593902667414 3.41869995617275 5.481500567485 0.207894325168899 0.919863865900906 0.137
0.13702 3.87021666296143 2.98603342716103 5.4627543796161 0.190245104453618 0.918516757541289 0.13701
0.13703 3.87121556944941 3.02602479224029 5.45565759428447 0.198636647334164 0.908735343948266 0.13702
0.13704 4.27913088753094 2.9949135622835 5.54302318597776 0.206842302879529 0.949270623382438 0.13703
0.13705 4.50046134570227 3.62467394922791 5.51181382309567 0.232321606616818 0.943879448449385 0.13704
0.13706 4.38781662593248 3.39140319701865 5.46946576312783 0.218899097642273 0.893488604666702 0.13705
0.13707 4.42460274127788 3.5586526927475 5.35466195393042 0.224198885627738 0.926109871463105 0.13706
0.13708 3.92427361407192 3.20169647160702 5.49404765218434 0.201857409166582 0.896813575678398 0.13707
0.13709 4.00946363527731 3.2494071539564 5.67245328444719 0.196864748281459 0.932820332810968 0.13708
0.1371 3.97239805055795 2.97936533487526 5.66439672810191 0.192653207650134 0.943586721770156 0.13709
0.13711 4.15671282923403 2.94396042080982 5.41934723849953 0.203985046198055 0.912467198587647 0.1371
0.13712 4.36760171200957 3.11045324976975 5.34235229948851 0.214424324642838 0.905160787610677 0.13711
0.13713 4.25672602098865 3.37362917006675 5.41387056734993 0.217397479625256 0.915684298051221 0.13712
0.13714 4.39765649588715 3.3742376090593 5.35597790290849 0.218754154432265 0.889050782706931 0.13713
0.13715 4.48686165562079 3.2657867104509 5.39490777835488 0.22366343392899 0.921573387474031 0.13714
0.13716 4.20001045549582 3.30450875086798 5.5243472923009 0.207409792517402 0.948509399781015 0.13715
0.13717 3.90095603280574 3.64855764055637 5.39733894153267 0.20916700712474 0.898467030458243 0.13716
0.13718 3.86662249641707 3.40315276136335 5.44228270401285 0.205176990641842 0.911238050068006 0.13717
0.13719 4.21645583837693 3.00264324797483 5.42329870270783 0.201872063261336 0.90046024835242 0.13718
0.1372 4.32961996537039 3.06956156242295 5.53013722709236 0.212005225432728 0.912058209957357 0.13719
0.13721 4.55651193491729 3.20512963284363 5.49663651965502 0.221959547375339 0.933048340748539 0.1372
0.13722 4.23854662475345 3.40939948124903 5.37794493333698 0.211698315391208 0.910346655564488 0.13721
0.13723 3.84183744786503 3.2677383744324 5.44750610222738 0.19699537954083 0.89331685217216 0.13722
0.13724 3.8153604799745 3.40807366662116 5.39678356987953 0.208275101330704 0.874832164364723 0.13723
0.13725 4.16448903942946 3.59711023554217 5.43997839227899 0.223222769242761 0.938298175445333 0.13724
0.13726 4.3186930143034 3.34811775584276 5.54175560790778 0.217481541876197 0.917146372320118 0.13725
0.13727 4.18937462003054 3.42490155675075 5.64449724527224 0.207318460956105 0.944493942241536 0.13726
0.13728 4.03658699344065 3.25556915652376 5.46947733310356 0.210534529872674 0.910776298491847 0.13727
0.13729 3.95875932252569 2.85404570091115 5.44515004957697 0.196825206549951 0.884645397581425 0.13728
0.1373 3.95998594813356 3.19643183985147 5.46743134407515 0.203582613189767 0.913845156903051 0.13729
0.13731 4.32058281743053 3.01364541686507 5.34650275390507 0.207495301866406 0.892333714259642 0.1373
0.13732 4.23754723058629 3.51877262397234 5.31399268026065 0.218869579348762 0.889507795567927 0.13731
0.13733 4.09179063262464 3.0164018697375 5.38229767296218 0.201146123610979 0.909693477465495 0.13732
0.13734 4.17262057254485 3.28569026591874 5.37498022583782 0.209175596282689 0.922915883857715 0.13733
0.13735 4.11049801758304 3.39210896582877 5.56557587010323 0.210031422564485 0.915702742797946 0.13734
0.13736 4.20681107348364 3.37047596967116 5.61854005401238 0.211987333772056 0.926595588580779 0.13735
0.13737 4.10678629035902 3.13808500986263 5.6013281033871 0.207810661218644 0.922003063611578 0.13736
0.13738 3.87750089200515 2.95174677424729 5.47584421719996 0.193088352520849 0.910818908380155 0.13737
0.13739 3.90100707700282 2.94837097906431 5.25441892104299 0.187624399952364 0.89317187778995 0.13738
0.1374 4.16366525788785 3.40699073973732 5.25326962377251 0.215688603792146 0.869357080465866 0.13739
0.13741 4.24188918594383 3.61683023946569 5.44197400226545 0.216847103590922 0.915628687473517 0.1374
0.13742 4.08316929158968 3.16812209840538 5.49734393887568 0.201070026029231 0.910474975745342 0.13741
0.13743 4.02256159387155 3.05462895359649 5.59496477256786 0.200056217615462 0.91441785062315 0.13742
0.13744 4.02951112070537 3.3125081279013 5.3934459758253 0.197030034350935 0.922547489393005 0.13743
0.13745 3.61186893881462 3.7796359880764 5.4957641984218 0.210976745277785 0.931154045795189 0.13744
0.13746 4.21807644410894 3.79249806190254 5.52215136192609 0.223787317469751 0.93726712305659 0.13745
0.13747 4.27832382651845 3.45193238385044 5.53456657234452 0.217958627823154 0.93137760276067 0.13746
0.13748 4.08092723124106 3.07964216059353 5.49009998348881 0.198877388148672 0.907388807525121 0.13747
0.13749 3.87832957965955 2.79574852595907 5.30093924176348 0.18082171587767 0.90104279674355 0.13748
0.1375 4.09937694194434 3.026031098179 5.53247040368378 0.193680910970623 0.931759716452445 0.13749
0.13751 4.18253441063812 3.5410173364608 5.27445198832456 0.221996565209792 0.882176775984344 0.1375
0.13752 4.05387633085673 3.55821313386658 5.42516247640748 0.215088269848553 0.926609332267217 0.13751
0.13753 4.25950954962356 3.36716025093039 5.49965941845472 0.213743369459924 0.928233890503401 0.13752
0.13754 4.22130134878768 3.45568464953675 5.43486854804687 0.208306776728026 0.926204728309734 0.13753
0.13755 4.13996523304187 3.17941491746151 5.41178167219096 0.199623348723595 0.901985748363815 0.13754
0.13756 4.15416919298691 3.11164920942433 5.5030452289638 0.199439644108968 0.92928577195325 0.13755
0.13757 4.33738259403023 3.11208688348767 5.54110319539864 0.212987332123447 0.934159379708649 0.13756
0.13758 4.3176445877912 2.83738705631932 5.5938504367117 0.202786610557428 0.915177313729148 0.13757
0.13759 4.20113045221068 2.98284737896725 5.59398725963121 0.196842766349184 0.935512118455574 0.13758
0.1376 4.30361345622762 3.33716802889694 5.4873809374724 0.216434475005492 0.9128672758388 0.13759
0.13761 4.27396144889142 3.23341686622456 5.34132077442269 0.20976949383966 0.905379020340073 0.1376
0.13762 4.28344911507608 3.5238410742447 5.44438514452317 0.216628846234213 0.930732884496147 0.13761
0.13763 4.1623006381287 3.70101550578331 5.38419134560392 0.229595949519278 0.899917041545978 0.13762
0.13764 3.93089258847346 3.40100170244768 5.24079572925721 0.203095560396613 0.870439699790874 0.13763
0.13765 3.95290581353757 3.1469030507261 5.398754129167 0.194562847353004 0.927622957778808 0.13764
0.13766 4.28081894528483 3.11075580661016 5.28387521943941 0.208511770715133 0.879360742416727 0.13765
0.13767 4.21537205598305 3.11094384623125 5.60203490063322 0.201941281633999 0.933184472355914 0.13766
0.13768 4.03991915336667 3.15171496394688 5.5263357072263 0.205585423313098 0.915092409350905 0.13767
0.13769 3.95642743599115 3.15274129492237 5.71815494955451 0.207234529405793 0.925607577222547 0.13768
0.1377 4.04136975449202 3.58462328741645 5.78845997067301 0.209585800977119 0.950361606980165 0.13769
0.13771 3.96916721591824 3.46039584764425 5.81768232393271 0.208143654421494 0.941667347880197 0.1377
0.13772 4.27290741300236 3.37745351067779 5.62141976233446 0.217335271212523 0.937349967579614 0.13771
0.13773 4.36159461816719 3.33007027157405 5.53255640030008 0.216259822142656 0.94668954307938 0.13772
0.13774 4.10321413086579 3.14767741721128 5.38544477070311 0.203605726436903 0.885260318041257 0.13773
0.13775 4.24445194743325 2.88219780300112 5.37641120369655 0.200263588044602 0.911677988236519 0.13774
0.13776 4.4826490600305 3.27503267726117 5.44134002687671 0.209128559957974 0.942445083225732 0.13775
0.13777 4.10882128493949 3.25581222160386 5.4739143943942 0.207346194789451 0.911326717073421 0.13776
0.13778 4.16977771138888 3.15266605470541 5.44135357106195 0.207041666992429 0.924597064676759 0.13777
0.13779 4.28566909956137 3.05618808195893 5.45264444540506 0.201239090970688 0.918749261030199 0.13778
0.1378 4.26955242061142 3.1850473987039 5.34497632348646 0.214140414821657 0.898275711623121 0.13779
0.13781 4.21944640219129 3.08827948505637 5.33573845269318 0.199045376034064 0.919698497407789 0.1378
0.13782 4.34529416580341 3.38075912770037 5.5845966811962 0.219974650037023 0.96855519989225 0.13781
0.13783 4.28099589942018 3.2116041165735 5.45516389395171 0.208936085592324 0.9151704843267 0.13782
0.13784 4.31226356951622 3.30808181782838 5.32399573376992 0.2137502173807 0.914225881671404 0.13783
0.13785 4.54271333508333 3.55246464176558 5.41634490609577 0.234343755559862 0.910407485503366 0.13784
0.13786 4.24805888024277 3.40148002258417 5.4321028867636 0.221707357222935 0.913446663724021 0.13785
0.13787 4.0105047069723 3.18960586327432 5.57941348807727 0.200552046204299 0.937046562243677 0.13786
0.13788 3.99456163623248 3.1244217285273 5.67337265034153 0.200708796921786 0.940194919556788 0.13787
0.13789 3.86423992298751 3.32624885804842 5.47061948407193 0.199787979099885 0.901731019025691 0.13788
0.1379 4.22361174171915 3.45629094841844 5.54996008048162 0.221225791674231 0.940157356046323 0.13789
0.13791 4.23900378733178 3.34766140915284 5.63970630185732 0.20890685996903 0.95507011743267 0.1379
0.13792 3.92153606457606 3.05428131549689 5.5842174993525 0.203066229318614 0.900783667130717 0.13791
0.13793 4.10867933501865 3.16381993198696 5.49510759378627 0.205750449559454 0.910737232120747 0.13792
0.13794 4.09235398441292 3.08544124533048 5.37105836216612 0.203736190409452 0.901964883213791 0.13793
0.13795 4.13991276586155 3.12553141929172 5.36631722273062 0.194874547039615 0.912741544505442 0.13794
0.13796 4.27306750568763 3.35822876619596 5.17947769684647 0.218001652243155 0.879885909676066 0.13795
0.13797 4.3216643587174 3.60940333328788 5.29355774290277 0.221487981960723 0.936994147913176 0.13796
0.13798 4.15697977940438 3.42478758204592 5.40832845283982 0.20962739994663 0.902439189007409 0.13797
0.13799 4.08918626407014 3.21449147291532 5.4188412440903 0.20344747330767 0.907842689730816 0.13798
0.138 3.95614207111796 2.8213191234048 5.38086241272532 0.18385740607671 0.890429528269762 0.13799
0.13801 3.83599879622282 3.20401270716271 5.49063821863113 0.193689082082142 0.926405931673425 0.138
0.13802 4.00127312807638 3.25966491378289 5.50648697671521 0.197099323863986 0.915503270147779 0.13801
0.13803 4.13580494624588 3.23061384286021 5.3706581982275 0.20496825244445 0.926672958103232 0.13802
0.13804 4.1051121318492 3.20409257922688 5.6276119815054 0.207648355046822 0.927478197620261 0.13803
0.13805 4.12241348302467 3.23300515448043 5.72085506922958 0.203825954090394 0.954871273617309 0.13804
0.13806 4.2551203463193 3.19641270536222 5.65777587129528 0.208829075943203 0.92829619011186 0.13805
0.13807 4.29326020643348 3.44841528202823 5.63796688930884 0.209656762968652 0.962023662331964 0.13806
0.13808 4.31192354221186 3.33879359887415 5.36507240661975 0.222735594164046 0.899523726867542 0.13807
0.13809 4.09501472907145 3.14177473995587 5.34542399806906 0.197335998125046 0.884436970490496 0.13808
0.1381 3.89341414149179 3.40738457556258 5.26562255695199 0.207524014332798 0.894333983605199 0.13809
0.13811 4.28520982093388 3.25694938906757 5.47503168083268 0.209968816499087 0.928607216123086 0.1381
0.13812 4.23172343618201 3.28279384730145 5.63396843615642 0.209806906574398 0.957604583373835 0.13811
0.13813 4.19368692926814 3.37601615969827 5.56223354431001 0.209984395855334 0.932722713313848 0.13812
0.13814 4.30199803525725 3.04622338437996 5.43665414570966 0.205319740765902 0.945087618936244 0.13813
0.13815 4.30626678406967 2.90406556226022 5.57007222463701 0.199542157712664 0.919613605504625 0.13814
0.13816 3.76251308501215 2.57762493322659 5.45585052032264 0.183490740639884 0.872632927534514 0.13815
0.13817 4.2632709217286 2.96104908316956 5.33417994608088 0.197730109889343 0.883728060778954 0.13816
0.13818 4.1620641096124 3.1468614618955 5.24404796859364 0.216357759872358 0.869995832665356 0.13817
0.13819 4.11250403953641 3.25802083481654 5.48141383209176 0.204036625514316 0.918699605826299 0.13818
0.1382 4.07436912171852 3.60682024877309 5.69053017078938 0.208405457389029 0.945618901152571 0.13819
0.13821 4.17434544387839 3.4631692016888 5.54109360403137 0.213045959354435 0.939818125492997 0.1382
0.13822 4.40819067677721 3.3811880876531 5.53299066584616 0.220501715852057 0.934080392572841 0.13821
0.13823 4.03407422313559 3.02253605728131 5.47491118858055 0.194801256116869 0.920158215820559 0.13822
0.13824 4.10742941655783 3.37122623826396 5.60533096534269 0.210863235731918 0.945180333221344 0.13823
0.13825 3.8995591227733 3.05533262227142 5.66037757696823 0.194829190826142 0.922722912266686 0.13824
0.13826 3.62628065146121 3.35211906865375 5.27953140499392 0.189297702367553 0.881756379719595 0.13825
0.13827 3.7215156131104 3.24643878408843 5.12424212150275 0.188198704096357 0.844764992817598 0.13826
0.13828 4.04694724215993 3.57466640101413 5.08035900960764 0.206020149008882 0.916005701978349 0.13827
0.13829 4.19368448546118 3.7148121411995 5.33536116673725 0.227568447894649 0.90410253941281 0.13828
0.1383 4.16564630482373 3.44224093539401 5.36957369113799 0.214625137884718 0.912378956899813 0.13829
0.13831 3.73597764128908 3.30569993297611 5.62939655374728 0.197648608360977 0.927447399827004 0.1383
0.13832 3.79124174067187 3.25140385938544 5.62607227587424 0.196305306115493 0.927469221604457 0.13831
0.13833 3.92625284879511 3.18156632290448 5.60961163491718 0.202300595949645 0.919536425595504 0.13832
0.13834 4.067964133698 3.25225750700701 5.68461375160936 0.205701899636941 0.950433822654772 0.13833
0.13835 4.28349275693856 3.15364762043778 5.43830214248786 0.213783423813748 0.903384002722253 0.13834
0.13836 3.83278810834361 2.95319242685439 5.55019522774056 0.196027008235979 0.909748761698594 0.13835
0.13837 4.00961449930708 3.23338411371977 5.49721110394232 0.200017982255268 0.90220997418999 0.13836
0.13838 3.93961834023934 3.29972819894817 5.27203322926297 0.202197569351317 0.878787937782591 0.13837
0.13839 4.02703474100993 3.48042100314935 5.46558624701077 0.219279348735315 0.911509295656503 0.13838
0.1384 4.10631690048326 3.39591541287956 5.247142036215 0.205620423756527 0.898930498617142 0.13839
0.13841 3.94670970168168 3.01502070130443 5.28104424446786 0.194181935877329 0.864875970132951 0.1384
0.13842 3.90674913719683 3.30208322074325 5.35441954852239 0.199688450838421 0.885121542198314 0.13841
0.13843 3.8652888446944 3.17806474285356 5.42878138320149 0.205051020327625 0.900035424264086 0.13842
0.13844 4.10504495874737 3.14315943440026 5.2205441997805 0.202392002043563 0.882219531938912 0.13843
0.13845 3.90979151880135 3.20692015940224 5.47740097614699 0.197824193085471 0.919641746397498 0.13844
0.13846 3.73491730351374 3.23208288903822 5.79595880900996 0.197853440568488 0.943225701193786 0.13845
0.13847 3.68348250718363 3.03473115952405 5.72040185735745 0.188243110424459 0.942600420330267 0.13846
0.13848 3.89024357659038 3.01333684511335 5.6854426992033 0.195854162082651 0.913630808300864 0.13847
0.13849 3.9103568437654 3.13933766825047 5.43497397642268 0.196834080236847 0.909655282746627 0.13848
0.1385 4.23909948465429 3.13456573392096 5.57151494958198 0.206387271310136 0.944347744915363 0.13849
0.13851 3.96484913334979 3.33872315697234 5.46470677638523 0.21230075792166 0.900158954811918 0.1385
0.13852 4.21421849409118 3.51205677458133 5.26551049101289 0.212557285725994 0.920178495696875 0.13851
0.13853 4.12109382888495 3.35747248276694 5.12867915638237 0.210711680413601 0.893043071039075 0.13852
0.13854 3.99199522770715 3.421352983271 5.15407002260647 0.208714910103336 0.884183516589363 0.13853
0.13855 4.22158835799219 3.5404408628835 5.2903331251343 0.225685032945303 0.895548413344212 0.13854
0.13856 4.22787210254671 3.27842381474163 5.42733938571055 0.208498018451426 0.890284137461515 0.13855
0.13857 3.95598002772669 2.97005464256514 5.4552780260135 0.191374884741887 0.886894421480357 0.13856
0.13858 4.00306080369094 3.20519101354634 5.36233331245971 0.198511928484687 0.908347064407494 0.13857
0.13859 4.00230852225215 3.12823284352742 5.44604374825961 0.198032264737652 0.916668243322897 0.13858
0.1386 3.95301113134266 3.4420471538684 5.57659803907999 0.207952195302429 0.91736647979454 0.13859
0.13861 3.93813002759775 3.29886969026852 5.36797657088844 0.204067267590073 0.893738490509624 0.1386
0.13862 4.24404506856463 3.5237417146577 5.23837609075869 0.221480324366884 0.912472745901239 0.13861
0.13863 4.01662481060237 3.22311415925067 5.36061405104075 0.199079316096165 0.870587632308281 0.13862
0.13864 3.9870908761229 3.50342862152799 5.33385631281548 0.214003997634014 0.89454599215761 0.13863
0.13865 4.07189854737964 3.30750550958099 5.33967974809966 0.21359241683253 0.892725567856347 0.13864
0.13866 4.20968529489909 3.02822130019556 5.33171312576321 0.198855556963548 0.906619904096061 0.13865
0.13867 4.2452401653779 3.27708236824476 5.29570084649183 0.21775197677835 0.900547304148104 0.13866
0.13868 4.03424366456282 3.14014258993569 5.54472651112164 0.204069266797669 0.932495686807065 0.13867
0.13869 3.67731953652815 2.82229024339784 5.49997556011523 0.176587029884998 0.91730130716742 0.13868
0.1387 3.76447593436413 2.98256230056932 5.59231110371481 0.184195936295301 0.906555080598873 0.13869
0.13871 3.9352800483826 3.08448477486196 5.42589377682078 0.196815262723483 0.88484183824098 0.1387
0.13872 4.0564926655036 3.10202758452633 5.43735102115946 0.195626865119488 0.902675297069019 0.13871
0.13873 4.37284447445692 3.3870565625038 5.30740354841464 0.220032863880563 0.886182845161224 0.13872
0.13874 4.31211279912574 3.27489387124958 5.43851520689887 0.217039727746648 0.911808874597772 0.13873
0.13875 4.18275294008523 3.09576738583637 5.2849485991684 0.196874453645031 0.899636159552659 0.13874
0.13876 4.13702526902355 3.36797492458287 5.29715052528867 0.213539371975751 0.906276069545204 0.13875
0.13877 3.75309542257297 3.33613244542154 5.4338125698222 0.19448899649546 0.902220647472078 0.13876
0.13878 3.96898584384763 3.38343140478296 5.76539546860246 0.205604851417442 0.94447098210447 0.13877
0.13879 4.00302543405753 3.34226602982286 5.66415760972066 0.209651069757968 0.925147027727537 0.13878
0.1388 3.7341043657364 3.23566491517983 5.44152363841284 0.191836779374637 0.902734478597312 0.13879
0.13881 3.91701272967508 2.9269433351573 5.45592869108472 0.19271575153639 0.884816965134315 0.1388
0.13882 4.02402140011778 3.12972874699048 5.20470144987314 0.205907370361018 0.857152777243503 0.13881
0.13883 3.90333854467275 3.33028097282841 5.27184159410522 0.20677584263819 0.889083142684837 0.13882
0.13884 3.85635592786569 3.46536721009982 5.57511899905538 0.206616317761532 0.916769620531516 0.13883
0.13885 4.03391281753084 3.64306457416127 5.47807482876333 0.215834404102426 0.897905178614142 0.13884
0.13886 3.81213761249405 3.41668743930895 5.36975321374395 0.192898868970456 0.89480156293271 0.13885
0.13887 3.93107678255072 3.46088414112833 5.51155919395178 0.20874517835747 0.93868722145138 0.13886
0.13888 3.87876367445141 3.43991705962676 5.47644065934682 0.202355913588067 0.90899031707892 0.13887
0.13889 4.18541815681476 3.53440263605868 5.57381311527957 0.219189528354012 0.923236025333617 0.13888
0.1389 4.04800109945437 3.13552766344406 5.65868536869623 0.20553668201875 0.92457299376511 0.13889
0.13891 3.86609166787018 3.09781967208261 5.29738377632999 0.197612038849224 0.869792843628627 0.1389
0.13892 3.87561889760598 3.16593183329126 5.26927200762452 0.20087836381798 0.880093707022807 0.13891
0.13893 4.01641166388759 3.34785537734417 5.44191387943609 0.205955979708822 0.921440037655702 0.13892
0.13894 4.21432886415848 3.32842567978399 5.59782897851601 0.209094043656451 0.893918687225912 0.13893
0.13895 4.31145456085316 3.27099098783236 5.39168113185463 0.214329911359415 0.915849645915624 0.13894
0.13896 4.01798190752937 2.99246872615827 5.40522556089174 0.19817305069631 0.908934638362165 0.13895
0.13897 4.02752440506451 3.08519921727963 5.26524055261724 0.195933871378139 0.887543595693184 0.13896
0.13898 4.12401434642887 3.17032643072924 5.47595901823694 0.20469695799381 0.921517818879781 0.13897
0.13899 4.20719469098296 3.28917963651845 5.21643509789123 0.216657767961109 0.897859793962881 0.13898
0.139 4.15651859390245 3.32267221329825 5.40195050185119 0.21208203963923 0.921818117272769 0.13899
0.13901 3.94241521487342 3.32282312747992 5.6462094805222 0.202663266200538 0.938420181078126 0.139
0.13902 4.08911125178827 3.0027465282356 5.59221805170263 0.196316190092477 0.917214729931972 0.13901
0.13903 4.16635617878421 3.30134712372339 5.56055832101829 0.207666163523954 0.907819178774054 0.13902
0.13904 3.92439670263752 3.13951991668221 5.65704577646246 0.1934111189949 0.944146220315997 0.13903
0.13905 3.7809648224117 3.02025110258402 5.55756330877731 0.187672781123286 0.89782780659691 0.13904
0.13906 4.17340039037135 3.31346919727991 5.41834363467258 0.208190669424087 0.916984966756117 0.13905
0.13907 3.89279425807422 3.44988355150572 5.26305576550112 0.208318203328441 0.88715175593906 0.13906
0.13908 4.00633639455116 3.18624565577418 5.38444731112985 0.200591682193856 0.912994353862949 0.13907
0.13909 4.16898700337464 3.35664039938407 5.3346175143808 0.20708015290583 0.919725819306819 0.13908
0.1391 3.78794703961493 3.23933829537688 5.27329228736289 0.204050089219565 0.881648112612652 0.13909
0.13911 3.75081391428818 3.20077881224245 5.27412931694044 0.189635622505246 0.897110858756936 0.1391
0.13912 3.76142048339352 3.34767527154927 5.47112060829445 0.203878578428154 0.90084093323062 0.13911
0.13913 3.97331974340136 3.28209123227406 5.42200856610952 0.203555640892081 0.909348466624532 0.13912
0.13914 3.91180025376009 3.33557208111935 5.55912103785677 0.204633282835808 0.931886824281785 0.13913
0.13915 4.09678837814125 3.39571861855259 5.69326322534206 0.209960861531458 0.940862961848498 0.13914
0.13916 3.91822129514936 3.47342224690987 5.62150119142046 0.210918713612556 0.930581295657806 0.13915
0.13917 4.16583809155486 3.40091290110455 5.78305073065835 0.211056355942674 0.957319750464007 0.13916
0.13918 3.95484746001555 3.74050302491911 5.61623249763607 0.213847803248588 0.950858177705843 0.13917
0.13919 4.30230914138092 3.26112336639661 5.47115825591082 0.216618930866954 0.916562886509949 0.13918
0.1392 4.06410554542853 3.40801198578027 5.44755926062643 0.207621380220538 0.922190541687981 0.13919
0.13921 4.22971715586554 3.17699770109133 5.41694020758445 0.209571184305371 0.913682385181353 0.1392
0.13922 4.23435408151023 3.33748327724059 5.37753513101002 0.211900104707257 0.896095123949004 0.13921
0.13923 4.19490291615966 3.03355061825373 5.40799541486845 0.197659377378511 0.911979290573116 0.13922
0.13924 3.93237167141953 3.23069704738254 5.44370636463414 0.201798352112854 0.891901140751936 0.13923
0.13925 4.16343348913904 3.49590585157123 5.3515566363067 0.214850508437871 0.928999255889736 0.13924
0.13926 4.12114200970837 3.28228530981533 5.44684604040765 0.211200616662308 0.902956122530875 0.13925
0.13927 4.12786045822141 3.41518917499547 5.40892860754018 0.208222197227861 0.928760265199615 0.13926
0.13928 4.13969238265551 3.62448820564762 5.42322509528686 0.224691226871548 0.900981993859022 0.13927
0.13929 4.15980050166515 3.55845046567271 5.4848455421046 0.209204511146218 0.921237562063024 0.13928
0.1393 4.09259016595574 3.312038445345 5.48758383485677 0.207650355642897 0.909144023360126 0.13929
0.13931 4.11675587557836 3.47355614082922 5.53779580468146 0.207259906492805 0.935918581397802 0.1393
0.13932 4.17416001306361 3.52608439079908 5.53409446566983 0.207738347185077 0.938226666292624 0.13931
0.13933 4.11040817131737 3.45885383497758 5.38573227220503 0.210095752437895 0.932548211497545 0.13932
0.13934 3.81368882285089 3.26451287770885 5.38507977383741 0.201021770770301 0.884176631571377 0.13933
0.13935 3.92416333346397 3.18168767002287 5.57876303399922 0.204712049565448 0.912156332647688 0.13934
0.13936 3.93843018289394 3.12920525690369 5.72904096178624 0.202088697132227 0.934868381930684 0.13935
0.13937 4.06663051481981 3.07592636343864 5.49200186105659 0.192816329996691 0.91517302779824 0.13936
0.13938 3.90666182637542 3.38762133033629 5.42725534380242 0.204536715074613 0.898272798283214 0.13937
0.13939 3.94560039981041 3.20431064574401 5.33076001352723 0.199472564832068 0.899015971891773 0.13938
0.1394 3.9095746511804 3.33824826412355 5.43912000668658 0.20418275319831 0.911019714549203 0.13939
0.13941 4.10966669645244 3.30955528545323 5.52821103000121 0.218407042740785 0.908470734295616 0.1394
0.13942 4.15223504963081 3.48886186886716 5.43346733295253 0.214104632344577 0.915995728356444 0.13941
0.13943 3.99020514644978 3.36770685300323 5.52651030889229 0.205601955847419 0.906523455132827 0.13942
0.13944 4.05112795091048 3.23191615160035 5.30445196592766 0.206530467554087 0.8848406465763 0.13943
0.13945 4.16446647755458 3.23758479078316 5.37977406167752 0.201861114995874 0.920376354769256 0.13944
0.13946 4.38042458878755 3.46859885299971 5.46501010586768 0.222608406144115 0.906783018980535 0.13945
0.13947 4.26183971986323 3.29423941155955 5.69267899076811 0.215821889602512 0.934758809940781 0.13946
0.13948 4.11317911547484 3.18266731656397 5.4886064206074 0.199064480326799 0.930874225326578 0.13947
0.13949 3.86817315979975 3.16846036798039 5.45276286269166 0.203127435216992 0.916139523765823 0.13948
0.1395 3.97421990364891 3.30158446862438 5.32277797096476 0.205622345124323 0.885508349747218 0.13949
0.13951 4.23446718743296 3.34267473438366 5.47447183601407 0.212757800809824 0.934273633690263 0.1395
0.13952 4.44190142154064 3.69754940758369 5.64033719488788 0.22249725451989 0.965468596855247 0.13951
0.13953 4.0081298291341 3.64621726666786 5.60080878356565 0.21591561801661 0.922248593104171 0.13952
0.13954 4.02177137759556 3.25226615462878 5.38804893310562 0.19833182387895 0.906776319756664 0.13953
0.13955 4.26511818260065 3.26260756182563 5.3856429382585 0.211614426830459 0.912095167479056 0.13954
0.13956 4.27110047179136 3.3572963848944 5.29497252499969 0.217860221939771 0.887301771480161 0.13955
0.13957 3.96809452035963 3.12036139371417 5.40828578914656 0.193666503307444 0.913388365947054 0.13956
0.13958 4.20998372386213 3.29690241662255 5.64676870914207 0.217746287580064 0.932223803929368 0.13957
0.13959 4.03499001259977 3.60225100695988 5.62938874766547 0.214631353483702 0.940609830444868 0.13958
0.1396 4.02963995938895 3.37454091680273 5.68847693433035 0.205496976017723 0.947791763700889 0.13959
0.13961 4.1143393920236 3.25718204393653 5.54350312726529 0.210138709147344 0.92447158679699 0.1396
0.13962 3.85349630653511 3.03353587020581 5.64815461896228 0.185875104204501 0.920792926531166 0.13961
0.13963 4.08088235033307 3.1445639801295 5.27357804493225 0.208636332809575 0.894863015300291 0.13962
0.13964 4.26677050944641 3.38563955630669 5.23646875603915 0.215125650970431 0.882023752338477 0.13963
0.13965 4.05319079539408 3.42453736555809 5.36456859352131 0.209361952059109 0.910432485790663 0.13964
0.13966 3.91709176559188 3.5253146282874 5.54469443249658 0.206585577914277 0.914867073967253 0.13965
0.13967 3.72197001479569 3.27998242885344 5.52950096967644 0.187896818538301 0.915330557942699 0.13966
0.13968 4.06128867965743 3.22647539573351 5.71699101856821 0.201484697669896 0.949426782563027 0.13967
0.13969 3.9571134516509 3.24148625400713 5.69176010760946 0.202660887881254 0.950146666049605 0.13968
0.1397 4.21541319892116 3.4910019591796 5.64498295231234 0.21286595132476 0.929577981402938 0.13969
0.13971 4.29657663038785 3.29718392428167 5.59201905026192 0.211991977551762 0.945018624770146 0.1397
0.13972 4.09960213636968 3.20134202445446 5.51652710566298 0.202225088610979 0.915612628953395 0.13971
0.13973 3.88121953476423 3.49107766380669 5.50114905776024 0.213579258819502 0.910793825238181 0.13972
0.13974 4.02929161724053 3.29444263221364 5.52852344962081 0.20774174255263 0.908076704915088 0.13973
0.13975 4.0407078143595 3.34058373111279 5.45815819634741 0.205664972576291 0.915719150871806 0.13974
0.13976 4.01839558320496 3.49588194901622 5.61114596091366 0.204289444801194 0.920569986788225 0.13975
0.13977 4.07288626395821 3.44918780471966 5.44348535574241 0.215532472804153 0.926093383338212 0.13976
0.13978 4.2813744979258 3.37986950812606 5.39896104236677 0.223398365894683 0.911591550170377 0.13977
0.13979 4.22291499838997 3.25746152155947 5.46469347798841 0.211411029186568 0.897047259086029 0.13978
0.1398 3.94986794839298 3.14571028240204 5.45413074524101 0.207291557529038 0.91236454827427 0.13979
0.13981 4.1499769166555 3.41755539294432 5.60489359943147 0.212138459894583 0.942242632794847 0.1398
0.13982 3.92548205157961 3.1672087574695 5.6034798049979 0.197770437826679 0.937566441936677 0.13981
0.13983 4.27332057777871 3.51044085758823 5.70459410430089 0.219906495061959 0.953926900560191 0.13982
0.13984 4.42842121778784 3.41417808275283 5.47171110196302 0.226762093024601 0.907301090228733 0.13983
0.13985 4.07257141998398 3.60847583856019 5.48350231072166 0.215532965968657 0.934009304710047 0.13984
0.13986 4.25659212665927 3.76419175840383 5.65405000057453 0.226442469548407 0.950476924173794 0.13985
0.13987 3.81597163614754 3.53972020057793 5.59629017276105 0.204018297238411 0.9213833247972 0.13986
0.13988 4.24275382210074 3.19814016957436 5.48223509003302 0.205115616802578 0.900689091951306 0.13987
0.13989 4.44804174861424 3.15586943815184 5.34778659599124 0.213645004183139 0.905569180474547 0.13988
0.1399 4.17326623039423 2.94328437837083 5.48861356615682 0.195994118448703 0.924212739598376 0.13989
0.13991 3.89568584514254 3.06000233989154 5.42272487392184 0.195945287151024 0.916427984090037 0.1399
0.13992 4.29746418263271 3.4317538071391 5.62306814084342 0.21606881220346 0.962022905748685 0.13991
0.13993 4.04768678072874 3.63565177921837 5.39601083162331 0.216906115441485 0.918330209377607 0.13992
0.13994 3.89936247124345 3.86809884533042 5.7737810634781 0.216592616246556 0.944126684814745 0.13993
0.13995 3.88920373894713 3.40180923189374 5.57485093967209 0.20659823923513 0.930914750116027 0.13994
0.13996 4.12117798577451 3.44588528013661 5.35039448358822 0.205443668719706 0.933745272745629 0.13995
0.13997 4.06140639297865 3.39841374925804 5.42372792420874 0.211147606210551 0.895142920534206 0.13996
0.13998 4.25460478701633 3.03826731071904 5.44808186511874 0.209816338469793 0.898580908702984 0.13997
0.13999 4.30058474841518 3.26359628783287 5.59232523915589 0.206252273742353 0.95921485578504 0.13998
0.14 4.4385216499516 3.04173953103782 5.81286129093552 0.21699662497472 0.945674981800356 0.13999
0.14001 3.82421545407712 3.2673295417881 5.58419916466368 0.188620000097595 0.923465540926809 0.14
0.14002 3.77395520064275 3.61933858535484 5.59301844647395 0.212687105948772 0.910929121534107 0.14001
0.14003 4.09141675008445 3.6818479616902 5.5840402103424 0.215562008538322 0.927051957056133 0.14002
0.14004 3.72775267143213 3.41364054390583 5.56638969265863 0.193547001507899 0.916673442437127 0.14003
0.14005 4.13494454233468 3.58242990443346 5.41991540727835 0.213282137136066 0.941483678079852 0.14004
0.14006 4.0754526947101 3.59257811772377 5.42642693524236 0.217552161242727 0.906837523705924 0.14005
0.14007 4.51011911102045 3.27259631171939 5.47528936632963 0.21995276196762 0.928222871014763 0.14006
0.14008 4.21824085119192 3.31033531142195 5.41928341533418 0.212788580111474 0.908381309283092 0.14007
0.14009 4.14356359849476 3.20732852822803 5.56677551597083 0.206198753019203 0.90539230463702 0.14008
0.1401 4.04125292558867 3.45107830070544 5.73177908267548 0.198305992381751 0.966977733499052 0.14009
0.14011 4.28591918810448 3.60207009670011 5.7999674080243 0.228970091390096 0.963077754909322 0.1401
0.14012 3.9929196741982 3.66283152883138 5.56951819033771 0.212627923740388 0.949206147501089 0.14011
0.14013 4.14427514149537 3.27096555669392 5.5503581266358 0.212561250693206 0.917566289225375 0.14012
0.14014 4.30380469251035 3.18862238930978 5.52819238571699 0.207877705330466 0.92914542475225 0.14013
0.14015 4.35102059105065 3.47651926761901 5.32896310385696 0.21276430629203 0.923010359013799 0.14014
0.14016 4.47698224429419 3.22051426121764 5.4185427685775 0.219313958491128 0.907417580920853 0.14015
0.14017 4.23475891554931 3.25866153034701 5.24003868458566 0.217056560641543 0.881597621351371 0.14016
0.14018 4.15873770442924 3.41178077783401 5.32297447781383 0.204736730637677 0.908998200993572 0.14017
0.14019 4.26258018768526 3.45865186619295 5.53972273802302 0.217538422060245 0.934771386392617 0.14018
0.1402 4.11777445725212 3.77596549324374 5.57622867684788 0.220317541217127 0.939909854111569 0.14019
0.14021 4.12181434415004 3.45647368873589 5.62257236078612 0.207224066703424 0.959874055228662 0.1402
0.14022 4.06018731556295 3.24439267809458 5.6253564810259 0.204565029541626 0.951676619218491 0.14021
0.14023 4.3181265769764 3.05309281600788 5.39744604121846 0.213437595898176 0.905066468486857 0.14022
0.14024 4.33482614257677 3.57890111354881 5.64791432688894 0.229596991230729 0.958491574658365 0.14023
0.14025 4.15692758831023 3.31643777869953 5.66067448972927 0.215062983339344 0.929688009741057 0.14024
0.14026 3.69805262868277 3.33056414160982 5.73679446261973 0.198805240864073 0.953460755547567 0.14025
0.14027 3.79665318545869 3.36242471123348 5.72726737250461 0.192957148334844 0.940997651434168 0.14026
0.14028 3.82775995863708 3.10575551570177 5.54608812068771 0.201166582345692 0.90172096222182 0.14027
0.14029 3.95690768341515 3.17026612241099 5.61148543687583 0.201346680545593 0.925108169741526 0.14028
0.1403 3.87515990261837 3.61718908255184 5.48635706443797 0.207097141225325 0.923938501575029 0.14029
0.14031 4.04878725449552 3.58088532517655 5.42440171650593 0.214274988969089 0.915114843618875 0.1403
0.14032 4.13710056819048 3.31668579205675 5.61185524300255 0.201706479347195 0.961466099208997 0.14031
0.14033 4.04728427381573 3.60271661641745 5.72418106700644 0.220128748597808 0.933680434853489 0.14032
0.14034 4.25270212068517 3.67847655931145 5.49838732686678 0.217166133726047 0.946762330415652 0.14033
0.14035 4.09490566920655 3.60966606954499 5.485384970421 0.20854228471119 0.910447766891194 0.14034
0.14036 4.08666620731994 3.0050994528434 5.4637593722987 0.201339185861191 0.932207715641148 0.14035
0.14037 4.10156602268076 3.2432543636697 5.72754630839395 0.2105792839111 0.94460633571161 0.14036
0.14038 4.29168635717723 3.33542747200925 5.57302930697859 0.215894395233264 0.946432572727685 0.14037
0.14039 4.63980129725436 3.57631840970533 5.85694223612597 0.233597952485199 0.979551210989648 0.14038
0.1404 4.24113050956902 3.42839333302544 5.92682975930339 0.206417660575834 0.997401662997309 0.14039
0.14041 3.89646648851367 3.43085249304535 5.69107876004195 0.200459749917284 0.946893380326121 0.1404
0.14042 3.95794513905064 3.25398266359874 5.48404836918644 0.203120222860207 0.906340154401052 0.14041
0.14043 3.84977780538708 3.42119087497439 5.38917960744829 0.203192659395175 0.883937171498993 0.14042
0.14044 4.40941218161792 3.70088140869729 5.31034115717738 0.229307727056907 0.916379177609602 0.14043
0.14045 4.46326222387566 3.67921059326159 5.39222785350936 0.226434096712475 0.934847272010262 0.14044
0.14046 4.52188667959918 3.61016964122152 5.60535384380239 0.23116251248357 0.948571868162074 0.14045
0.14047 3.9518344890039 3.43799846535602 5.62034988355586 0.206200517553147 0.920042530411013 0.14046
0.14048 4.06754592898048 3.75259586649761 5.40696348982735 0.225677229971801 0.941359544297781 0.14047
0.14049 4.02685762681437 3.34557611414075 5.57397798631816 0.209490090765056 0.914123114931252 0.14048
0.1405 3.95024555528567 3.28451339075403 5.64003553094877 0.203460641160839 0.944901974177052 0.14049
0.14051 4.11123272385308 3.44514242370596 5.70714512268963 0.208353237031827 0.968116216499276 0.1405
0.14052 4.278210449803 3.17388864954552 5.57054092831937 0.206975011143898 0.926710130969225 0.14051
0.14053 4.18741415845411 3.31398252224666 5.63806323958362 0.210426909318162 0.93214139109713 0.14052
0.14054 4.2026153255232 3.41152373082401 5.52907834923555 0.211491383434503 0.934013360145318 0.14053
0.14055 4.31460041020768 3.25878619004738 5.45337240696 0.214731219804003 0.911234638454424 0.14054
0.14056 3.90139855702866 3.45395999418403 5.5401883803027 0.200633176978019 0.937872105847453 0.14055
0.14057 4.11071165387008 3.41784116874003 5.77212062156387 0.217839477703055 0.934267606240174 0.14056
0.14058 4.43198175844829 3.69327237673774 5.75967365930648 0.222447337986844 0.969469317148476 0.14057
0.14059 4.24487779174383 3.41553185226673 5.54394991287987 0.213376347689845 0.950659665932807 0.14058
0.1406 4.32295058924201 3.33416545667624 5.5735463793867 0.217080890257478 0.931499834305596 0.14059
0.14061 4.26368857877162 3.52749251090154 5.56298694223828 0.22390122061717 0.921820028914182 0.1406
0.14062 4.18397956920975 3.26306026550954 5.5891175462779 0.204517962088281 0.946140994736735 0.14061
0.14063 4.21862445083507 3.35427402146413 5.45672388566809 0.208516275330795 0.929189485859536 0.14062
0.14064 4.15453377687189 3.35887708364511 5.83260666715815 0.209792056053379 0.959120204574057 0.14063
0.14065 4.19395519870634 3.62476773287764 5.65425775925189 0.223074707371919 0.943847997807601 0.14064
0.14066 4.01057444646498 3.381053070712 5.38844304978508 0.209048080834356 0.89655358216263 0.14065
0.14067 4.07651788141743 3.28506574548753 5.4936052170274 0.202504930710441 0.922529718993571 0.14066
0.14068 4.32767467890929 3.63001292926945 5.6166529265721 0.219256383243268 0.952091398058865 0.14067
0.14069 4.28029092937267 3.35053399611175 5.60324947438408 0.212085262018215 0.9178088048582 0.14068
0.1407 4.43248786568947 3.23403854649058 5.38154801602046 0.209490958781532 0.921306311855396 0.14069
0.14071 4.19173043960269 3.56983280651001 5.46636201193055 0.219019741370878 0.929057758490088 0.1407
0.14072 4.07492576076746 3.60972351280751 5.61431714171681 0.216572834160251 0.933983183131679 0.14071
0.14073 4.16647196182295 3.73552226047997 5.56745849567032 0.219941919654222 0.924427281299082 0.14072
0.14074 3.85228820502749 3.61099632891192 5.63113123974381 0.204738480155577 0.933612635222152 0.14073
0.14075 4.20813671768552 3.54595571880057 5.61321702661583 0.217016980199371 0.937931525181508 0.14074
0.14076 3.95349951720966 3.36163315260305 5.45741460138545 0.198124536005001 0.914107939558346 0.14075
0.14077 3.68073792876641 3.38700380296792 5.73569257231769 0.1957117290767 0.916253438725639 0.14076
0.14078 4.01400697413979 3.44920637863887 5.65721804328613 0.21051265259334 0.939932076192462 0.14077
0.14079 4.01374996889352 3.41607083140115 5.77054583101093 0.203405158811947 0.975272499257175 0.14078
0.1408 4.36576217235042 3.49237684000477 5.65853577739417 0.226165792955302 0.957906412579795 0.14079
0.14081 4.25806920408054 3.53991000347462 5.53702749214861 0.224218354082657 0.925085983521988 0.1408
0.14082 4.39026026363987 3.37627659958927 5.39519887728568 0.21324063299284 0.915225528544182 0.14081
0.14083 4.22405522796665 3.19682886037847 5.70229274099542 0.212516604855428 0.953187244907198 0.14082
0.14084 4.0928719484219 3.16539938843561 5.70029376656869 0.209915499933149 0.93951587323102 0.14083
0.14085 4.20254236226356 3.26599845365365 5.5421623673565 0.212633827589731 0.928846277106522 0.14084
0.14086 4.25074003603695 3.58567694950216 5.46745145900692 0.225901423244654 0.914726102464281 0.14085
0.14087 4.21386744339376 3.40796071248568 5.43381214297291 0.217307965272538 0.896029784573029 0.14086
0.14088 4.31804155537449 3.26681137324959 5.34750640049108 0.211488712155293 0.924804797923227 0.14087
0.14089 4.28166807700587 3.38379152020993 5.49896886223032 0.216864325312608 0.916373727746329 0.14088
0.1409 4.21625082678084 3.45767506218121 5.50948300262403 0.212717531693437 0.93258392465466 0.14089
0.14091 4.02260652076657 3.49765893562285 5.62580261314134 0.20264968831487 0.94395528111227 0.1409
0.14092 4.02179395939846 3.31660377581082 5.66716129545039 0.21053643031828 0.908979633640706 0.14091
0.14093 3.7694760172665 3.68811421945644 5.68726477394183 0.216683609465762 0.929384802438267 0.14092
0.14094 4.25317663954673 3.66050364618472 5.49657900352399 0.227808459750178 0.917362562816752 0.14093
0.14095 4.45114387298205 3.79324792715573 5.57848055340661 0.228342000058745 0.952039155882316 0.14094
0.14096 4.59103728914178 3.53019307737061 5.5590105601447 0.229098139473828 0.936857931300385 0.14095
0.14097 3.91548813478955 3.43645015967095 5.54325600748036 0.200281819268765 0.911638779729279 0.14096
0.14098 4.05508227864881 3.47946333303459 5.66034727998895 0.217458146032334 0.942524904092255 0.14097
0.14099 3.88838068794032 3.39200190862558 5.62691090615739 0.210728977732056 0.930612888450616 0.14098
0.141 4.09764394268644 3.39455378338908 5.80387711626715 0.205585295029763 0.961078107870469 0.14099
0.14101 4.27636878200472 3.4732640750908 5.6298258313559 0.221794415821331 0.942673440586094 0.141
0.14102 4.08100170801227 3.30891778322239 5.85581453667397 0.199020138298622 0.957536255895938 0.14101
0.14103 4.00331151125989 3.29768740904704 5.88566764413374 0.203385085793536 0.96282623323244 0.14102
0.14104 3.87601434142089 3.38613030599345 5.69170303203326 0.202866382138552 0.935980934680279 0.14103
0.14105 4.11062855391271 3.2049053951834 5.50997702486786 0.206227085653409 0.933915801504287 0.14104
0.14106 4.35677951136156 3.59479149499042 5.44689010251996 0.224263117989749 0.916861621190032 0.14105
0.14107 4.15118759673935 3.63195882838653 5.45813742040101 0.214000047068538 0.925812237450929 0.14106
0.14108 4.12440197283004 3.58457617369615 5.53725420102393 0.217057802995322 0.903950653937767 0.14107
0.14109 4.4170026124484 3.79663679332854 5.54773406021125 0.231012254446371 0.954317724017736 0.14108
0.1411 4.44784159594991 3.53066604173626 5.65423944715297 0.226440320577201 0.965337381559856 0.14109
0.14111 4.14342384785475 3.22346346437064 5.7425829342815 0.202587747260631 0.9527296101153 0.1411
0.14112 4.39157131392892 3.23360337433758 5.555117186216 0.215879637133059 0.95516449033326 0.14111
0.14113 4.38147096257413 3.36679595301447 5.49073753956027 0.212258028251252 0.937906904416298 0.14112
0.14114 4.43788165298763 3.46198255345371 5.68778428391604 0.217239412423846 0.946192091773263 0.14113
0.14115 4.04607173252319 3.89465559531678 5.89686268875329 0.228820203912668 0.985153983311039 0.14114
0.14116 4.07486517900364 3.49028194917895 5.84854174914488 0.216709164697958 0.959771416092453 0.14115
0.14117 3.69937990169259 3.10254057668315 5.79111798068443 0.183621503710928 0.973354433724451 0.14116
0.14118 3.90220282398197 3.28648297368403 5.75071084666596 0.193918126637526 0.943894622422285 0.14117
0.14119 4.39287779234223 3.52606149968185 5.39713223469642 0.235414348516533 0.917262045928836 0.14118
0.1412 4.38177202521297 3.31033615246519 5.49477007245143 0.215652052816311 0.930178441112899 0.14119
0.14121 4.29028641758449 3.54091170185499 5.58042665921927 0.219575047521876 0.912671924566263 0.1412
0.14122 4.07954462716826 3.72870111971151 5.71252057864811 0.214089545040073 0.978603345751847 0.14121
0.14123 3.97663465024735 3.53952746366546 5.49821987866132 0.210952962204445 0.923648034452021 0.14122
0.14124 4.13066618529954 3.70060002820559 5.43235440059474 0.219903357430942 0.924188335084101 0.14123
0.14125 4.11386151848641 3.41558969262586 5.72796290414467 0.213026836653323 0.937406988505446 0.14124
0.14126 4.41216020350915 3.45040266913608 5.70293108102609 0.2185478208427 0.940878806182575 0.14125
0.14127 4.44910181743519 3.31052640189007 5.60050415664506 0.217833213798492 0.935178452891008 0.14126
0.14128 4.05772093550989 3.05872885045919 5.73480297788662 0.204677667268527 0.935066252740397 0.14127
0.14129 3.96973302422752 3.45647906503943 5.87488728622004 0.210925596023915 0.977050768723442 0.14128
0.1413 3.97926851140825 3.23502213898429 5.76625319679814 0.203607713124639 0.932839424048574 0.14129
0.14131 4.21558534692464 3.34048194533845 5.81659031561563 0.21670691802372 0.966163714674418 0.1413
0.14132 4.37221450999518 3.46785372429809 5.69194896372645 0.223185894223814 0.969518297085138 0.14131
0.14133 4.36128202195628 3.34473758954986 5.50745723287355 0.216392976392191 0.920329069536542 0.14132
0.14134 4.38904930305222 3.69613034781751 5.36690330255995 0.218025596847808 0.948203482496488 0.14133
0.14135 4.37402516557532 3.52545205178758 5.53592414070958 0.225345655184567 0.917178063155943 0.14134
0.14136 3.81318143956992 3.38429821809291 5.59946809765272 0.198790707000068 0.935200394118322 0.14135
0.14137 4.01148942907109 3.57966870102395 5.71903526801795 0.209378231846716 0.944303653655851 0.14136
0.14138 4.03854637841931 3.40122223325024 5.65553515808801 0.212726092766279 0.969749831446208 0.14137
0.14139 4.46406358496056 3.68073444068076 5.76446092525912 0.228215149854304 0.935394786332284 0.14138
0.1414 4.28134901671865 3.36907331002582 5.61974917355695 0.211227870387844 0.956928096493623 0.14139
0.14141 4.22777271275448 3.43666691667942 5.76290820809374 0.221195182185075 0.954715203426094 0.1414
0.14142 4.28934022322893 3.47650171726671 5.65024540373653 0.211639291421389 0.939629513716532 0.14141
0.14143 4.01593240460074 3.35375958768782 5.68725967133629 0.21265500220473 0.947821101430464 0.14142
0.14144 4.31688988344752 3.49194960343555 5.42316409200517 0.22202040448861 0.927233145745726 0.14143
0.14145 4.0313210737716 3.21738768038653 5.62310705042893 0.20363319807011 0.933661502085039 0.14144
0.14146 4.09375522811447 3.43249249539655 5.39244757159263 0.21624720019247 0.889306459738507 0.14145
0.14147 4.48353224367115 3.46784521687083 5.42347310194273 0.220308815435817 0.945941407912239 0.14146
0.14148 4.76809914566366 3.671753227291 5.53687694365697 0.238686095327296 0.965969520414777 0.14147
0.14149 4.40817124600814 3.88569132355854 5.62129232212192 0.231116086133977 0.960182547274112 0.14148
0.1415 4.31836017676118 3.45784732905872 5.59840360962257 0.213042010258452 0.915116984007737 0.14149
0.14151 4.22269518255333 3.07144291604857 5.64088356409935 0.197693555588477 0.932537066303363 0.1415
0.14152 4.00203564282724 3.3136450274797 5.64296133486455 0.209375628778564 0.931629169133499 0.14151
0.14153 4.25026701868288 3.73048560874683 5.77540520893909 0.218835248203131 0.948104505516399 0.14152
0.14154 4.39350130926892 3.691925314327 5.61821946080612 0.229317743215362 0.950689914759316 0.14153
0.14155 4.28472910402208 3.51094086225763 5.95480162323623 0.223508592009481 0.970915451063912 0.14154
0.14156 4.33092758976082 3.32631337812148 5.62970930927556 0.211163742896792 0.932767275319488 0.14155
0.14157 4.16767558373404 3.26373677265276 5.57274418960705 0.20814256703998 0.934577110723664 0.14156
0.14158 4.18918740288708 3.26958874360371 5.51278042457583 0.219690925557194 0.918767338851769 0.14157
0.14159 4.01840042271192 3.29929346266951 5.68187220541369 0.200949878593012 0.942865791344279 0.14158
0.1416 4.06347516942531 3.60693265881047 5.70618506042178 0.220472831460256 0.95362541014646 0.14159
0.14161 4.32226376269764 3.8237702265952 5.92173947443437 0.231625738509364 0.995875256954554 0.1416
0.14162 4.36551860460852 3.65690871375978 5.67578250325032 0.22464202232569 0.96145803713996 0.14161
0.14163 4.33962039850519 3.41479518640775 5.57345656938606 0.220608825588237 0.925410079344502 0.14162
0.14164 4.16620364321137 3.4794030116792 5.39731169650707 0.215468306625851 0.909756473875447 0.14163
0.14165 4.00584935979933 3.48947288365861 5.62038083010977 0.216840383093207 0.927267815081767 0.14164
0.14166 4.09282297450662 3.60219906257398 5.59992468379752 0.212331834590678 0.9440780069835 0.14165
0.14167 4.15025480361644 3.25200233272657 5.80549868891878 0.210288837547651 0.949452749061233 0.14166
0.14168 3.94512918862735 3.44064972171745 5.5958893531489 0.212512639937125 0.92424385953165 0.14167
0.14169 4.24941564918584 3.4039510757682 5.44694467646626 0.221166573855013 0.90116660818109 0.14168
0.1417 4.08470614555412 3.37291262679819 5.63322982748759 0.20089064793617 0.947639822101736 0.14169
0.14171 4.36540683062682 3.507820838435 5.69094620779132 0.226620835953481 0.920548542367453 0.1417
0.14172 4.35213719635057 3.769413891017 5.55410311553501 0.227560023911285 0.950807078247039 0.14171
0.14173 4.31896296751573 3.57976186932677 5.60899513962353 0.220648193252138 0.952115283533445 0.14172
0.14174 4.2047495349165 3.50396276062846 5.65200268168416 0.214057162412027 0.983887381942214 0.14173
0.14175 4.29134051762373 3.50664557389642 5.83803201338147 0.214615703923302 0.978841121573506 0.14174
0.14176 4.27016703837416 3.52679779463756 5.74962018926506 0.222858325904192 0.963490608136807 0.14175
0.14177 4.52642444995399 3.67867095844183 5.75412113277533 0.22776138143068 0.992507582377278 0.14176
0.14178 4.38117455345856 3.27366822675853 5.61612837173557 0.213417724166193 0.943250955608916 0.14177
0.14179 4.48996922610682 3.39458670815254 5.5865235047348 0.222378915654802 0.960156380088665 0.14178
0.1418 4.60846472633576 3.66743497120415 5.61775450985039 0.242815463130353 0.955752576033934 0.14179
0.14181 4.25939975811415 3.58641265395528 5.4840727304807 0.212186128034904 0.931541794217324 0.1418
0.14182 4.11052553692463 3.52062826187216 5.71795901396062 0.216337566603233 0.942916981591675 0.14181
0.14183 4.12017677237809 3.43138314253978 5.7754582304843 0.213057005218924 0.963120079305485 0.14182
0.14184 4.24314795944164 3.52376698905041 5.71158847079707 0.221944722658825 0.947350357868063 0.14183
0.14185 4.52535808783158 3.60904143314751 5.77134706680665 0.230186797470927 0.987537397434787 0.14184
0.14186 4.32543693639993 3.47813392689838 5.81462680883128 0.218111284162668 0.965181117626859 0.14185
0.14187 3.9831232385763 3.31644150446593 5.71378691596404 0.208555872798946 0.920376717717086 0.14186
0.14188 4.02993916065673 3.25665462325983 5.65300151848682 0.203684056501832 0.947751840460284 0.14187
0.14189 4.30100364867065 3.72569704829334 5.67912198726872 0.224451138146358 0.971312189192343 0.14188
0.1419 4.06832696975466 3.87182964682934 5.83620883005363 0.217339694996614 0.986352978725533 0.14189
0.14191 4.2241074717604 3.56258557659506 5.59439180180445 0.219374283819627 0.947845283307752 0.1419
0.14192 4.21298994594147 3.38002219868051 5.66970182921752 0.215569372079463 0.954220273639655 0.14191
0.14193 3.91013192408519 3.38149803403841 5.57412322815233 0.195513003714619 0.915712564752975 0.14192
0.14194 4.24034386050905 3.40344664866203 5.69477023931544 0.219574695603444 0.934579912835904 0.14193
0.14195 4.35897433293144 3.79453371507481 5.62312213348895 0.217169556831621 0.986911918866633 0.14194
0.14196 4.28228910632582 3.74143021507697 5.53522020216615 0.233794049695072 0.92378075223113 0.14195
0.14197 4.1996216497853 3.84580648795504 5.50057784793795 0.22437322806908 0.939136468433488 0.14196
0.14198 4.08428522739766 3.82798361555358 5.6880477221895 0.221716327635785 0.959078498531771 0.14197
0.14199 4.09762883917985 3.53434491327357 5.73210430705076 0.216797358682828 0.951360819743097 0.14198
0.142 4.51548249602185 3.30461863090321 5.67600473256461 0.213788401608484 0.970583406288506 0.14199
0.14201 4.38288175277747 3.37310603663375 5.82045851570546 0.21419323138719 0.978224510042089 0.142
0.14202 4.10537585694057 3.06375798156262 5.85832279222917 0.202749787518303 0.940707895225979 0.14201
0.14203 4.58223207655773 3.38742390269982 5.74824985319116 0.225817872289644 0.949325953524051 0.14202
0.14204 4.35744754315418 3.39204551334115 5.54005910694599 0.217589546415081 0.949642725295055 0.14203
0.14205 4.43261060119022 3.62882138616885 5.67011089135284 0.222332275085856 0.971818227955869 0.14204
0.14206 4.12359381198278 3.7329206976071 5.6786607354784 0.218341358897714 0.955052002615939 0.14205
0.14207 3.98177525964983 3.55939207575425 5.70831417789348 0.211783599198416 0.933446813310751 0.14206
0.14208 3.92746109275127 3.51301881192178 5.55414565016011 0.206718625847283 0.927476747030377 0.14207
0.14209 4.13822647113928 3.73659327919798 5.67233999862497 0.224175566705877 0.939979294517211 0.14208
0.1421 4.13666174438312 3.63524449466541 5.51538509615945 0.216102131593743 0.936877382702689 0.14209
0.14211 4.01578270509816 3.74452295507015 5.77190800701104 0.220573643686764 0.951457710808184 0.1421
0.14212 4.2336345901025 3.54290694256111 5.87664674920346 0.22192177971366 0.957459346434218 0.14211
0.14213 4.07279871283239 3.58620611690606 5.88693179529384 0.218164166616857 0.968382283563048 0.14212
0.14214 4.20725081740157 3.75280945025099 5.79353208955218 0.222406365145487 0.990004398471608 0.14213
0.14215 4.37281992997885 3.70067706841213 5.77394358620796 0.230022038682675 0.948041432596593 0.14214
0.14216 3.93508140917997 3.49996578689626 5.78883250300229 0.207733586452321 0.954720938495322 0.14215
0.14217 3.84097868353275 3.3577658110591 5.59897597831212 0.198461071930737 0.916434720452263 0.14216
0.14218 4.32455929802541 3.51957297245728 5.51539971881286 0.218791040626512 0.942311358709379 0.14217
0.14219 4.23667544762305 3.37724293223415 5.75220726425303 0.212988109206962 0.97674446406991 0.14218
0.1422 4.73111245358379 3.75557404243905 5.50459076537055 0.240410816619986 0.931279367802323 0.14219
0.14221 4.11120518884601 3.070432792876 5.36296874345851 0.19665520933368 0.912850081306725 0.1422
0.14222 4.11514157088732 3.31144863524115 5.49979865736472 0.21393509961322 0.906978057511063 0.14221
0.14223 4.27734096098612 3.7253961431368 5.60251733537791 0.232655978158383 0.936259135050787 0.14222
0.14224 4.19720841104053 3.96365771544702 5.65768567029406 0.225685233598715 0.970095815076734 0.14223
0.14225 4.35065210142049 3.69455966776129 5.61572054695802 0.221550403933106 0.941311826954841 0.14224
0.14226 4.45967849985983 3.40360321907158 5.40399683701306 0.221088052272237 0.930751163287987 0.14225
0.14227 4.39309264600072 3.32167617395478 5.37690840152775 0.217739139269482 0.923153256775281 0.14226
0.14228 4.338238938471 3.2686585806932 5.70806891472016 0.216363907142988 0.952540751859169 0.14227
0.14229 4.5024214523585 3.26182680566408 5.99687080835978 0.211965786632907 1.00215883847677 0.14228
0.1423 4.38800811211242 3.35030596514612 6.05958299935835 0.21738104846131 1.01630043257133 0.14229
0.14231 4.0073365335294 3.32391882615671 5.79303363662855 0.207202866652162 0.948143586548103 0.1423
0.14232 4.2877470492597 3.34346728230578 5.6362079329854 0.210217076643803 0.965638253584631 0.14231
0.14233 4.06335344090704 3.13994644504908 5.48406537101103 0.20238241435025 0.914693741482521 0.14232
0.14234 4.59585382020873 3.75219662044271 5.56008147889568 0.224151681109703 0.976084588113506 0.14233
0.14235 4.21519801720463 3.75496348778226 5.67104809438575 0.217033694678488 0.96927883546552 0.14234
0.14236 4.13699245283766 3.52213123817993 5.59263336713344 0.215385615911166 0.923835515864979 0.14235
0.14237 4.10085950583445 3.43376243335645 5.69790075130726 0.210451495543307 0.951433958865467 0.14236
0.14238 4.06081718168908 3.4018322048824 5.55810868826223 0.210819317059562 0.902563838393206 0.14237
0.14239 4.15954190031005 3.577902492881 5.51757269969335 0.213521689778179 0.922335610111475 0.14238
0.1424 4.20080294449147 3.23177629043533 5.660690336675 0.212139834385853 0.936409958438057 0.14239
0.14241 4.08367791848332 3.3474706345863 5.7475372282745 0.208172469744048 0.939676967118404 0.1424
0.14242 3.99440051139214 3.72452669838017 5.76724896789716 0.222524050400573 0.937443032486199 0.14241
0.14243 4.3342277287249 3.6019517757517 5.67911706868975 0.222757907008751 0.940353190183907 0.14242
0.14244 4.69736044688416 3.69082845231416 5.50554878568302 0.237488943197788 0.950384160356797 0.14243
0.14245 4.00339475559979 3.43877154661539 5.7684519700357 0.208237162726115 0.95448956842232 0.14244
0.14246 4.1961714115155 3.30779414476968 5.68452607469826 0.210011398122285 0.950495408068994 0.14245
0.14247 3.57685270716513 3.18083200544221 5.70115130926128 0.190272549152502 0.916539941880239 0.14246
0.14248 4.31927500310739 3.88513466655574 5.63511597752743 0.226918875459283 0.965990102540197 0.14247
0.14249 4.51910870190761 3.74554666388247 5.39592111723173 0.230290626578337 0.945844694680456 0.14248
0.1425 4.45833978545206 3.59556967253993 5.61615838795628 0.228418714182547 0.944311910352001 0.14249
0.14251 4.35238101101123 3.57257389408868 5.5618855889873 0.215905908057167 0.939469875792348 0.1425
0.14252 4.35363275663773 3.38135752398022 5.66953144889261 0.221613828314529 0.960938711994738 0.14251
0.14253 4.07677688021792 3.70695007025484 5.85933816258473 0.218509516800283 0.964746951967141 0.14252
0.14254 4.19878585161559 3.78871696081387 5.71227624003392 0.223197638473538 0.965770326433506 0.14253
0.14255 4.39954377069939 3.44790257627545 5.73193039778732 0.223493545974408 0.945311669962271 0.14254
0.14256 4.34207141783409 3.58215016630499 5.65039655506928 0.221108638616584 0.9563677613779 0.14255
0.14257 4.33081736805309 3.45173366724655 5.56242182097114 0.221079810875148 0.943854678933244 0.14256
0.14258 4.24932858867484 3.30378133340363 5.78894750296944 0.217869190935768 0.942521626084272 0.14257
0.14259 3.98571115094403 3.22189004662615 5.79565635795806 0.193366296942198 0.969753732569956 0.14258
0.1426 3.72370419545143 3.34777013675723 5.6751227298379 0.195548148335047 0.926240738543564 0.14259
0.14261 4.07179183614091 3.55046010835145 5.5332144746116 0.214439804775369 0.941237012062198 0.1426
0.14262 4.52825406826629 3.8061009296142 5.43987128587089 0.235940441282337 0.93985288321244 0.14261
0.14263 4.34773388572393 3.70848396607902 5.63546843696845 0.220153836533002 0.968027972584536 0.14262
0.14264 4.31066842514874 3.8003353411412 5.61178550619897 0.233654642885938 0.931234194886459 0.14263
0.14265 4.00615211353143 3.73870486015103 5.7134086486333 0.21581813926023 0.963400542706759 0.14264
0.14266 3.82591802776189 3.11752926072833 5.68052199732138 0.192291014619087 0.93025374053281 0.14265
0.14267 3.84325040865339 3.22037387884334 5.67343265757918 0.201639304211424 0.93665764478718 0.14266
0.14268 4.25942809459621 3.58645819053976 5.70860341026883 0.224714837950538 0.937757156103454 0.14267
0.14269 4.35226416624306 3.45591692297349 5.62445084643883 0.219343392512467 0.918335865491547 0.14268
0.1427 4.36851191966168 3.82262121007779 5.80869224498138 0.23704407209667 0.966536759441502 0.14269
0.14271 4.29083418686767 3.69824527505885 5.81485196785076 0.221506744043712 0.97543083017437 0.1427
0.14272 4.31460417540666 3.23221079645539 5.7466130577499 0.216171217573604 0.967881657576748 0.14271
0.14273 4.31141246950529 3.39616556996463 5.96108181969083 0.212701544626609 0.987640086861626 0.14272
0.14274 4.28912898535473 3.43211729290122 5.5504690573228 0.222256325386036 0.948504126529002 0.14273
0.14275 4.2253138277811 3.27230573892828 5.66156664934976 0.20860988943748 0.944943575930635 0.14274
0.14276 4.48887988691144 3.48216105791865 5.65415195004576 0.225127246488341 0.941326695357462 0.14275
0.14277 4.70297736184642 3.66364945069073 5.68950425943508 0.238266167627733 0.979556422611466 0.14276
0.14278 4.33035683172217 3.79934566202155 5.7770996185879 0.22597031622505 0.955770307118003 0.14277
0.14279 4.09742998586528 3.54853872050683 5.7740733676319 0.223217689578978 0.947764383258659 0.14278
0.1428 4.03184662242661 3.34777847210513 5.56908517562017 0.206456439935269 0.934687085995373 0.14279
0.14281 4.29836013210028 3.38439558018498 5.55634447108172 0.218682749693646 0.935090117264861 0.1428
0.14282 4.30631939122959 3.71487087013472 5.64323855621188 0.222034344271223 0.941448877834614 0.14281
0.14283 4.15192427696907 3.5725042173011 5.77071315981263 0.215306550649384 0.969318542886994 0.14282
0.14284 4.33810323000234 3.74012248407265 5.89545389144962 0.225447122778593 0.963391548906733 0.14283
0.14285 4.03374354834888 3.4393213456158 5.56752891209846 0.201765855850493 0.940749635771112 0.14284
0.14286 4.26299379799779 3.7643060911208 5.56338925916833 0.229864930643984 0.952720081348914 0.14285
0.14287 4.12006036401889 3.96274325437634 5.77587985536088 0.22687307986302 0.986955481366079 0.14286
0.14288 4.31410080059384 3.95871480427748 5.72339280456591 0.23568673227834 0.959554033606979 0.14287
0.14289 4.2031279456629 3.14868248186433 5.63019308945131 0.202157485876103 0.947567264174227 0.14288
0.1429 4.05038427503964 3.46492324115009 5.73653183023492 0.201208797994527 0.944853629443051 0.14289
0.14291 4.16319068149908 3.42208758393904 5.64321115655676 0.214531196725078 0.955839005781353 0.1429
0.14292 4.43632063059544 3.43304878997998 5.52462203210558 0.224394463418301 0.954687417563318 0.14291
0.14293 4.44182848866741 3.34566667377118 5.84726450991783 0.224030782448567 0.985816381751823 0.14292
0.14294 4.10107506772546 3.3006577214394 5.80600465681126 0.212128834551111 0.934343226910204 0.14293
0.14295 4.12658156033371 3.17228874017507 5.47986679522096 0.207710692001147 0.895514029626599 0.14294
0.14296 4.07417689221071 3.52884682265427 5.66516501397449 0.213738288655942 0.939781390998946 0.14295
0.14297 4.22634171427076 3.88274421710742 5.74744473023435 0.229530986708054 0.980176920825679 0.14296
0.14298 4.40828492986086 3.81841937662472 5.56267378310275 0.235122308233757 0.953573979471391 0.14297
0.14299 4.21035787595727 3.43879997723297 5.6680608331888 0.219153743619446 0.964589766376309 0.14298
0.143 4.14907479807539 3.33641931257774 5.63604235073069 0.207914748423788 0.921994588294726 0.14299
0.14301 4.23253965530639 3.48745699197635 5.55194915351252 0.221319023504779 0.946977762515818 0.143
0.14302 4.1902562761517 3.45670192947252 5.7906167394065 0.220223043312148 0.942288441593514 0.14301
0.14303 4.35948800196595 3.49860089204083 5.9355852426752 0.218250902174013 1.00217354651498 0.14302
0.14304 4.51130413645386 3.83988099619398 5.63346970332656 0.233939170220386 0.965160355070001 0.14303
0.14305 4.32976792205324 3.58958967591164 5.54457844301823 0.220869871405148 0.951803095662071 0.14304
0.14306 4.2543796315868 3.54213248543791 5.84300540393022 0.214786030987577 0.956678349573227 0.14305
0.14307 4.3041443235565 3.30022833434496 5.70043251674587 0.215908445520499 0.945565529211447 0.14306
0.14308 4.25063331563133 3.59889887023615 5.73364805043297 0.218855477522276 0.969723659403064 0.14307
0.14309 4.44859049951036 3.53733074857106 5.57727887592722 0.218649408681434 0.939977053825488 0.14308
0.1431 4.21512230669113 3.45166970914671 5.58322470215551 0.21238523543843 0.928947149994328 0.14309
0.14311 4.37508949109705 3.57194100340371 5.71030901992113 0.225380840437489 0.959947025859115 0.1431
0.14312 4.2913133916738 3.78876246255878 5.69379978166016 0.226590856523679 0.970379762287023 0.14311
0.14313 4.78666713327236 3.55584666949189 5.65247895623036 0.237447227745518 0.967755536095954 0.14312
0.14314 4.5819049924058 3.84328905030116 5.43239180730472 0.233175206433742 0.927095040416093 0.14313
0.14315 4.10240153054735 3.5389498340748 5.69561856029885 0.206103279815896 0.975660101907777 0.14314
0.14316 4.23981160315736 3.33992235737382 5.58432540624687 0.216139768747356 0.918023690984603 0.14315
0.14317 4.33975335615904 3.31423511410339 5.86406411600589 0.214598915617001 0.988592011369375 0.14316
0.14318 4.46791201648411 3.57188593564005 5.77976420965918 0.217961588802685 0.990724583710667 0.14317
0.14319 4.29524487028717 3.54308366230223 5.7904972457498 0.21537066900167 0.978378799294724 0.14318
0.1432 4.58097921424624 3.4967871112029 5.81725140560483 0.222407963059791 0.995001699110125 0.14319
0.14321 4.51633961931164 3.53224871547016 5.63995688772412 0.229901436640181 0.947333414334057 0.1432
0.14322 4.49366817554207 3.42111206106072 5.71787949022594 0.216305450472657 1.00956803237954 0.14321
0.14323 4.25173927639633 3.51930432713072 5.98072075177444 0.22048427614102 0.997763038782208 0.14322
0.14324 3.94921568016196 3.38079321851692 5.86909517797444 0.203692476646345 0.957656970882589 0.14323
0.14325 4.08758609843276 3.40514825749651 5.56083918341205 0.206879679850891 0.943638441226899 0.14324
0.14326 4.48087975487981 3.67571802894129 5.63117380488729 0.23058666722264 0.951117213092275 0.14325
0.14327 4.4383334180263 3.81698381512623 5.69481516988459 0.228065392419629 0.963927893178724 0.14326
0.14328 4.59432277750981 3.78236587823598 5.73096905434549 0.2382574975365 0.936231161857175 0.14327
0.14329 4.14806153906181 3.56447191853885 5.66389571965052 0.214482431211027 0.952411000722545 0.14328
0.1433 4.10457640443313 3.70495817654841 5.63513817889723 0.21554910176968 0.947670764794366 0.14329
0.14331 4.22037955221523 3.39205376586821 5.68979477425686 0.215529248390712 0.934949734105573 0.1433
0.14332 4.23677069882475 3.54632196259093 5.5716389514522 0.21819909619909 0.928166035096415 0.14331
0.14333 4.33698749936118 3.59455157908311 5.69645223775167 0.21442193446524 0.954415048122656 0.14332
0.14334 4.2059327204247 3.52085202490442 5.82002842083056 0.225362826877691 0.951725954630301 0.14333
0.14335 4.17515826368985 3.55331594873223 5.6191694802029 0.215794995151002 0.933190977504854 0.14334
0.14336 4.37048565791266 3.75330734427045 5.6513080238563 0.233373406848604 0.959708231964948 0.14335
0.14337 4.10468480457574 3.71265536718219 5.77562978533962 0.222804239587711 0.956390568897158 0.14336
0.14338 4.08695679479236 3.49120386879356 5.91290377449288 0.210364845251213 0.968980424557385 0.14337
0.14339 4.09453101894719 3.49951008645105 5.51493257064855 0.214161210812993 0.920259129521478 0.14338
0.1434 4.58900994826586 3.68590940619014 5.69266853465252 0.228345424270919 0.98585027817411 0.14339
0.14341 4.32961918725402 3.59461082985222 5.73000237700413 0.22687531514685 0.934907257144403 0.1434
0.14342 4.42139661161282 3.88646228049715 5.47464516913416 0.230920034461098 0.944764058240086 0.14341
0.14343 4.43381842353391 3.46744753535676 5.7334603584459 0.217086187119067 0.976372297899958 0.14342
0.14344 4.29082663833549 3.71920106922426 5.85964710467752 0.226472204628681 0.986549106340105 0.14343
0.14345 4.32838848601958 3.89859404385203 5.95564971069417 0.226590409300785 1.00399727101902 0.14344
0.14346 4.16343824586159 3.53795079872831 5.91467032690554 0.220222167662785 0.972643796508907 0.14345
0.14347 4.23557612355253 3.28395016226881 5.83668094708573 0.211784580178292 0.967084052734515 0.14346
0.14348 4.1243327112009 3.22697265591185 5.87351290092756 0.212741700065167 0.966576591678563 0.14347
0.14349 4.4703574388526 3.3115748814453 5.78427678136374 0.218067684983736 0.968177497973556 0.14348
0.1435 4.41614884408441 3.59726171887949 5.77437544273409 0.225718923753687 0.987616726446757 0.14349
0.14351 4.3503918985615 3.60690124412755 5.62052442566114 0.217238368049447 0.960040061873411 0.1435
0.14352 4.20929343006579 3.60891556617763 5.54803683717863 0.217524370493617 0.93738182973845 0.14351
0.14353 4.4238782900202 3.83798377312469 5.35207074367459 0.233016164151795 0.929346994627016 0.14352
0.14354 4.57490252689319 3.90454566367673 5.75530831394701 0.236704533249077 0.987284610149741 0.14353
0.14355 4.39128897709731 3.89600825240751 5.7521527832611 0.230537009796713 0.959800368955835 0.14354
0.14356 4.22654919619748 3.6638014250808 5.76088741703004 0.217907734437544 0.988360233828782 0.14355
0.14357 4.23067123684634 3.97411538637086 5.86457047605455 0.223368138043765 0.985679014943765 0.14356
0.14358 4.06661792352483 3.64040313024987 5.94742688458408 0.212921806132295 0.999216856243385 0.14357
0.14359 4.42240562195982 3.49151734453216 5.99819055061354 0.218359303374555 0.985520318348196 0.14358
0.1436 4.18900390680433 3.54321837941894 5.87892449223573 0.214854562362988 0.993985229823102 0.14359
0.14361 4.09191808746824 3.52024606237092 5.93253650048646 0.214238865583729 0.974677061899005 0.1436
0.14362 4.36998248960647 3.47956200062274 5.58559216019923 0.21474770559161 0.936288592312824 0.14361
0.14363 4.22226175229292 3.58431337293385 5.63919191497829 0.226878607312724 0.943534459946527 0.14362
0.14364 4.34041782844252 3.44570287032604 5.80803302653753 0.214329577735968 0.981661333868675 0.14363
0.14365 4.27047265022102 3.70084990584576 5.609659551088 0.223047763807978 0.94197336273906 0.14364
0.14366 4.23023414053068 3.8119845727688 5.61839074448384 0.226423538191863 0.95735777982906 0.14365
0.14367 4.54175174462864 3.7501657045175 5.54125751952129 0.226565765855124 0.973446125376384 0.14366
0.14368 4.45594282531143 3.72391773799082 5.82847374339572 0.231925967274094 0.975218590268237 0.14367
0.14369 4.26246399291982 3.37789692433823 5.81318303354863 0.221056487241974 0.959070486578723 0.14368
0.1437 4.64748605714019 3.25657510549348 5.84962167762057 0.222233445717596 0.964026713349617 0.14369
0.14371 4.63591618528349 3.50235054416236 5.7084344716362 0.230857733898944 0.952795356832962 0.1437
0.14372 4.29065757487642 3.29353951258976 5.67372326792107 0.205372442188574 0.961734285587233 0.14371
0.14373 4.24343278256585 3.59253682498784 5.78269991177958 0.219847820166401 0.959108485843724 0.14372
0.14374 4.53408906842433 3.85298119007706 5.83724512153667 0.236673152417347 0.989547730565326 0.14373
0.14375 4.42367653688737 3.7445239930146 5.65154938953375 0.240005450820669 0.94846478721858 0.14374
0.14376 3.98397701957012 3.47624421755647 5.6839577224218 0.208020695669564 0.920755971630276 0.14375
0.14377 4.23346938458918 3.86850947321394 5.62282803640449 0.232496136829581 0.959320791082057 0.14376
0.14378 4.30889159455821 4.18671669839812 5.65559917310757 0.238938095529273 0.966572507636283 0.14377
0.14379 4.37679825078342 4.07393856188942 5.789186612928 0.231762460205004 0.981372221416874 0.14378
0.1438 4.38025210463651 3.61295391198535 5.77105779215288 0.231342928413153 0.962070227581293 0.14379
0.14381 3.7912684297337 3.3377070093726 5.76868779783481 0.199156917836011 0.910350251270386 0.1438
0.14382 3.93475862882693 3.63825750862722 5.96026321943884 0.213919953385041 0.972495060622826 0.14381
0.14383 3.85575048426462 3.84517534909772 5.79724304622464 0.210426157281272 0.978638727913256 0.14382
0.14384 4.34973715978005 3.88753040476041 5.84404862601503 0.233303128887038 0.982021656360223 0.14383
0.14385 4.22812310595395 3.48775236350009 5.80701416192663 0.218210175977885 0.970562853101631 0.14384
0.14386 4.17023580748303 3.68495734630986 5.81319055987905 0.226080357766117 0.952049913175144 0.14385
0.14387 4.18258775183122 3.75678783725005 5.6388611722646 0.221845383399362 0.935833377763815 0.14386
0.14388 4.11691902241891 3.79675241259198 5.57827829514123 0.221997421773304 0.938346159478913 0.14387
0.14389 4.1957634171838 3.51999198906561 5.67648922119063 0.206380403979544 0.953511712504788 0.14388
0.1439 4.43382822132142 3.44786596644476 5.71094168514509 0.218478460784259 0.979367270020951 0.14389
0.14391 4.39574980795451 3.63382931481011 5.6409695379676 0.230123223871804 0.954829155662355 0.1439
0.14392 4.61212916878714 3.51135935754108 5.94390165934517 0.220819739210842 1.00594510005726 0.14391
0.14393 4.60451741403298 3.65424918242589 5.77581240958005 0.228577658497232 1.00064235463975 0.14392
0.14394 4.44200436014172 3.29683499608288 5.98982084832055 0.21666473152591 0.968524025001841 0.14393
0.14395 4.62237831443705 3.25101678257175 5.88739718757136 0.220778544457497 0.980086739941096 0.14394
0.14396 4.28118023057304 3.37617125075224 6.01639461555178 0.212455858899255 0.973341514360169 0.14395
0.14397 4.50386342986362 3.76897826102734 5.93333902670579 0.23740176475561 0.988702355673453 0.14396
0.14398 4.83652013572144 3.90242388215864 5.66572106091555 0.239832328777005 0.973282234638823 0.14397
0.14399 4.63153578772511 3.45470152323928 5.68053655827375 0.234307918427135 0.971806409912484 0.14398
0.144 4.55788604998099 3.74125885827767 5.65018752144018 0.234558839364174 0.947818066159162 0.14399
0.14401 4.30390953759657 3.63136094099763 5.49219248671646 0.217119659321857 0.942493983967691 0.144
0.14402 4.12130431382445 3.83139638899378 5.7208588984161 0.216360291792738 0.982179569461871 0.14401
0.14403 4.25141707579782 3.80093695188433 5.64274821880304 0.227517564551943 0.946725729241747 0.14402
0.14404 4.41804636376993 3.43942522157818 5.72130560918319 0.221491551103261 0.958760022606359 0.14403
0.14405 4.45642161693818 3.50446760979264 5.94322069062442 0.220562446087046 0.999026824646045 0.14404
0.14406 4.50189601432872 3.76189966594606 5.9693262662651 0.238635427059519 1.00777679500439 0.14405
0.14407 4.23680353494724 3.5795398135524 5.94357410369755 0.211986871288583 1.00313955331953 0.14406
0.14408 4.10705447820452 3.51922476046182 5.81183553697135 0.217614773257908 0.957085574066251 0.14407
0.14409 4.15013472203488 3.70679636055584 5.9660654413705 0.219068701277697 0.971799238817332 0.14408
0.1441 4.13381971487936 3.89241999377145 5.82026448476737 0.228234942323525 0.96790753110189 0.14409
0.14411 4.45288913836869 3.86914289919629 5.64052528028701 0.231632660291876 0.961200297309541 0.1441
0.14412 4.07106314387035 3.73421823103537 5.72791248100246 0.21652227794943 0.957574265494622 0.14411
0.14413 4.34650676346421 3.65057596554711 5.59232735038852 0.220281805699942 0.951798581208954 0.14412
0.14414 4.42896779983385 3.50017858447563 5.54651761083128 0.228995996821823 0.93079127886742 0.14413
0.14415 4.70595234200803 3.27821351565721 5.77466829680395 0.220611971263235 0.970492035830782 0.14414
0.14416 4.38208615605555 3.33585755685338 5.48593606337082 0.218149615211604 0.957017941414578 0.14415
0.14417 4.44680078683713 3.73939844742411 5.81148505542707 0.228200590992203 0.983938307388265 0.14416
0.14418 4.32892865318856 3.69482505735568 5.96794764194722 0.225232017817036 0.974939059265 0.14417
0.14419 4.74623826948096 3.49695871991442 5.9290693604419 0.23432179825422 1.00540351235266 0.14418
0.1442 4.57943254126124 3.70124004381529 5.88946527089538 0.227734675989384 0.993345727732606 0.14419
0.14421 4.33267864541447 3.67006468969485 5.78007614000191 0.234126803409477 0.953610448863529 0.1442
0.14422 4.42331517475053 3.32685199122813 5.77481231845282 0.21898575462788 0.960233858986105 0.14421
0.14423 4.3124665457707 3.45345963260185 5.85506518858424 0.217186370430479 0.976558904557549 0.14422
0.14424 4.53987940282207 3.49286838619427 5.93675440636134 0.22613205149165 0.99099423810844 0.14423
0.14425 4.54290411692485 3.67472040682461 5.91709394321527 0.230665719758975 0.971337475280318 0.14424
0.14426 4.34281655715826 3.63935520862332 5.78504385001629 0.220799069534047 0.981986984722494 0.14425
0.14427 4.16706302660771 3.77664148971166 5.69019103875801 0.229166884621493 0.955579191991658 0.14426
0.14428 4.22165681523311 3.85743511184345 5.58548544822064 0.224716990283452 0.949849643503033 0.14427
0.14429 4.2278071121337 3.65986940792392 5.61457938348293 0.223092403244822 0.956861600401606 0.14428
0.1443 4.3219471585748 3.91053498533846 5.59545385531634 0.22720044491176 0.96733158765921 0.14429
0.14431 4.4282666808937 3.80257611361063 5.7435185759771 0.235560364562289 0.961494122745372 0.1443
0.14432 4.37459845874903 3.82333205207125 5.76633828290035 0.233914659917866 0.971490871474234 0.14431
0.14433 3.9923942723615 3.81134464716266 5.88352286272722 0.209956704361077 0.979271114260062 0.14432
0.14434 4.34315599115547 3.92645385150033 5.83961283955112 0.23197644481573 1.0026922764786 0.14433
0.14435 4.49272036189264 3.73053049698113 5.98553204342599 0.228325055843554 0.992573951135043 0.14434
0.14436 4.2826370258476 3.6402278106593 6.01687078931153 0.216692716201963 0.997257666289282 0.14435
0.14437 4.2906806601625 3.78377317239759 5.88975249710124 0.231709536896431 1.00068247735862 0.14436
0.14438 4.33074564420744 3.19621714016397 5.88460321192802 0.202889385251528 0.984831626631502 0.14437
0.14439 4.51696925754322 3.58070563100206 5.86586230397391 0.233254074258822 0.966818862785931 0.14438
0.1444 4.62854504319181 3.75255516279146 5.78907594824626 0.235415501152568 0.975210920403793 0.14439
0.14441 4.51635734045906 3.52827373280714 5.72481009669655 0.221463493836728 0.96962072766305 0.1444
0.14442 4.40767242407145 3.68540502033004 5.69986975654616 0.226997468138178 0.953247262281446 0.14441
0.14443 4.33921738068829 3.5929035537207 5.67321031844616 0.225650488912532 0.951370409878866 0.14442
0.14444 4.63182316214244 3.81814259230797 5.81908876234761 0.236547587703596 0.984964162600849 0.14443
0.14445 4.62553080770301 3.9006549640011 5.82304006984361 0.24424724699476 0.984170511299229 0.14444
0.14446 4.53172811671046 3.72437622463487 5.85076825227928 0.234616436521516 0.976330875558834 0.14445
0.14447 4.13957649793556 3.39244472223737 5.86199597889236 0.205306338253246 0.982041929684363 0.14446
0.14448 4.17289585934226 3.1781522241692 6.06361330661167 0.204126154691097 0.991605335093184 0.14447
0.14449 4.30706001720338 3.53118844296642 5.84138812236066 0.227274484915757 0.958145194343587 0.14448
0.1445 4.50667986780061 3.93043895904962 5.74065441916194 0.240452188029323 0.966024525665034 0.14449
0.14451 4.26632150906407 3.99214237564008 5.74784099934081 0.229741648825182 0.964025443519025 0.1445
0.14452 4.00456053770775 3.76433115102645 5.8373755713855 0.217078048472854 0.970077595671611 0.14451
0.14453 4.11915143468348 3.89638322192083 5.6660715553509 0.218200519825926 0.954676520103485 0.14452
0.14454 4.37921322618979 3.99046848089157 5.69091739222721 0.233413489259882 0.988577739047118 0.14453
0.14455 4.23222025597768 4.12887836288171 5.85213706769432 0.244113026370903 0.971394401675024 0.14454
0.14456 4.23937842895687 3.61042854509115 5.62210434242971 0.223019211222674 0.937747868999007 0.14455
0.14457 4.04921418934467 3.59971052726192 5.71957412950602 0.213885649625575 0.969821671781134 0.14456
0.14458 4.22433353754343 3.68949020597033 5.71651934619549 0.220169255248521 0.945525389116262 0.14457
0.14459 4.49856761471956 3.99085218586831 5.78268590817479 0.243885422542516 0.961020359925567 0.14458
0.1446 4.34989710510904 3.95787638208713 5.86383810675531 0.234162134518792 0.992333270685328 0.14459
0.14461 3.9573034556725 3.77064160521718 5.9827947385574 0.211577212202488 1.00165159565358 0.1446
0.14462 4.02682955812524 3.51667328937748 5.88226754655568 0.21366240457814 0.988017698698907 0.14461
0.14463 4.1199792857951 3.65002478821362 6.0727831738133 0.210854401035642 0.999261773204267 0.14462
0.14464 4.55544319026072 3.55257325104664 5.81198740360968 0.230243029202384 0.991332690624887 0.14463
0.14465 4.46212434890974 3.57129738603928 5.78651863820619 0.227887633907653 0.98588599265805 0.14464
0.14466 4.41428705602344 3.91973457561499 5.79858770167119 0.234457183998813 0.961703848720572 0.14465
0.14467 3.94402450776814 3.50875597393283 5.6626375021499 0.20412332121417 0.944978635646507 0.14466
0.14468 4.23632304794824 3.78817875635846 5.76294044311352 0.233773004217122 0.970399762331369 0.14467
0.14469 4.23186490387345 3.63224937517273 5.87469841949942 0.21729587632569 0.974784026507961 0.14468
0.1447 4.46888173991104 3.65636582316952 5.71804368032665 0.232875637398045 0.967494852223949 0.14469
0.14471 4.39525045876656 3.77870922823441 5.91226359179701 0.221036800269254 1.01531165179035 0.1447
0.14472 4.47110729681928 3.66605062978311 5.83549488901279 0.227462298401721 0.987708989593537 0.14471
0.14473 4.05590225401477 3.48260506924148 5.88489085164589 0.212552944784835 0.959955502597411 0.14472
0.14474 4.075315453449 3.55503715204127 5.74244150750411 0.211120287512692 0.951416116895308 0.14473
0.14475 4.41232350945088 3.76483208721193 5.69563616176802 0.23064794959218 0.966394449789971 0.14474
0.14476 4.12881961488051 3.67395757498353 5.87666928240776 0.219299946166331 0.988404471820988 0.14475
0.14477 4.54586430046305 4.12044465459647 5.91581590576325 0.248240210135063 0.990240271748745 0.14476
0.14478 4.55461222280039 3.74501336631675 5.80683964610717 0.225338252747549 1.00892479906134 0.14477
0.14479 4.58206392680552 3.82921013668744 5.63377117774414 0.245000788923421 0.945911484590592 0.14478
0.1448 4.31410387504946 3.73754586550994 5.58388858803962 0.226719277832994 0.952941873333777 0.14479
0.14481 4.20364754122437 3.41274240036218 5.83123059871383 0.212632962728744 0.954306458301868 0.1448
0.14482 4.32890050425489 3.50851706072902 5.81589412866026 0.221761961921313 0.978092045410321 0.14481
0.14483 4.21107025024706 3.77565622266821 5.99101772807896 0.220202766895767 1.01123078724601 0.14482
0.14484 4.51276503135612 3.80969564767069 6.09199358856281 0.232773096397052 1.0057974304117 0.14483
0.14485 4.57582958604101 3.65157902766002 5.9407959543745 0.239797417860579 0.975268978557376 0.14484
0.14486 4.58090579256547 4.01695308102126 5.7012920759527 0.236724048054512 0.989963193126548 0.14485
0.14487 4.35637988497402 4.00534631196946 5.88514415570854 0.240692914597895 1.00108134429935 0.14486
0.14488 4.30036976719739 3.744551725679 5.89819510672792 0.22954180139314 0.978554238588801 0.14487
0.14489 3.95211584702189 3.38171880851993 5.94097630378004 0.204037592648171 0.981713241141346 0.14488
0.1449 4.20630568131876 3.54474369207383 5.89696050141464 0.2231731220984 0.963029525463247 0.14489
0.14491 4.85536114096072 3.8525939825185 5.64633064687804 0.239548353973359 0.993017631594164 0.1449
0.14492 4.24749157214152 3.74296515905368 5.63404559335132 0.224446009371388 0.950665336026182 0.14491
0.14493 4.38051722554602 3.52445064097765 5.61546823903682 0.225647448868902 0.975951638410211 0.14492
0.14494 4.25807255033431 3.58298937193292 5.80096281990204 0.224918236454379 0.98357902272183 0.14493
0.14495 4.24214715016453 3.5134249672619 5.81060186054473 0.213625985145418 0.973510309858395 0.14494
0.14496 4.3110467623517 3.70559874833299 6.03591238207699 0.225020066236668 1.00047156665328 0.14495
0.14497 4.4548566465293 3.56957105018547 5.81902675147079 0.228323418768831 0.976455079664851 0.14496
0.14498 4.30850480028755 3.87385011152056 5.78352993746033 0.234248598183377 0.978150373076804 0.14497
0.14499 4.64912966531008 3.84545949120959 5.87211563628578 0.245491808478493 0.982699851781263 0.14498
0.145 4.56713990988969 3.55667330814507 5.85374259928673 0.223630001906071 0.99184882592697 0.14499
0.14501 4.42954265339108 3.5458536263971 6.07818749638499 0.227247694662205 0.986122210803647 0.145
0.14502 4.29520177636454 3.64446105132566 6.0142672194273 0.213462616632885 0.997340880345423 0.14501
0.14503 4.13864518414884 3.64777653182303 5.6403477363283 0.22074903421015 0.946989142917632 0.14502
0.14504 4.53467358580291 4.02284979550741 5.69118526977262 0.24005544603687 0.984226769247837 0.14503
0.14505 4.60171073677472 3.96321855423132 5.56215676052877 0.233872220615977 0.967491160642087 0.14504
0.14506 4.58123862152597 3.82487164417785 5.63258151628773 0.230212819920174 0.96395981165002 0.14505
0.14507 4.54069331964504 3.95545378141407 5.74202058523197 0.24238127477327 0.979841813321913 0.14506
0.14508 4.4327814733166 3.91525428571316 5.85076869968543 0.223655577812522 0.987346313812374 0.14507
0.14509 4.49941628630358 3.75511184319236 5.84154311411046 0.227817872877451 0.989799144169989 0.14508
0.1451 4.27429803368468 3.76602425670265 5.70694770525158 0.229779310852482 0.963438254431148 0.14509
0.14511 4.42193291309573 3.55213305868869 5.92491610969366 0.224596497055651 0.996431752041005 0.1451
0.14512 4.23706651416517 3.75114754477687 5.94116475067484 0.218405938936531 1.00605243209955 0.14511
0.14513 4.41293817009847 3.94660142409164 6.0381618445297 0.232950469578747 1.00087408352269 0.14512
0.14514 4.13253353723286 3.94288395465731 6.09072346546519 0.228836397026043 0.998747561227548 0.14513
0.14515 4.42309608855619 3.99523517376717 5.8727589567135 0.233176897856948 1.00294883984579 0.14514
0.14516 4.40495678780271 3.65652506666185 5.75606029779054 0.228068080417133 0.970709538880604 0.14515
0.14517 4.34915053765969 3.62872689917488 5.77811672627046 0.226383825114751 0.954470204586349 0.14516
0.14518 4.36041227086258 3.56324695134696 5.65036084104058 0.219202920979089 0.967827723082098 0.14517
0.14519 4.30436499443408 3.57442637700964 5.74439699670392 0.226999040211623 0.951124702846313 0.14518
0.1452 4.25290332319496 4.01488579467712 5.96368698386125 0.236944483995899 0.99918314911275 0.14519
0.14521 4.27120330901881 3.7926993430072 5.99070707797299 0.229202190875506 1.00658551570776 0.1452
0.14522 4.47607383463828 3.85985673850104 6.10246423552076 0.234784221962565 1.02087903103578 0.14521
0.14523 4.36864008251795 3.70253636098709 5.79822451126812 0.227484166645947 0.996292387328907 0.14522
0.14524 4.29790601542372 3.46147191983876 5.77036297780193 0.215274246401454 0.96076298432108 0.14523
0.14525 4.39945299826206 3.60298989174757 5.94299230795759 0.224988952008872 1.002120839329 0.14524
0.14526 4.58593354934519 3.64186180904864 5.8819369534737 0.233900915223181 0.992174389131709 0.14525
0.14527 4.35448755930287 3.73635863270919 5.88663931770168 0.226838908654702 0.969471567401007 0.14526
0.14528 4.52477283485484 3.77954431659461 5.60578848133764 0.232694794410473 0.944098412251848 0.14527
0.14529 4.31984158404339 3.64450554033076 5.80236967677298 0.227187726988798 0.952688087392445 0.14528
0.1453 4.18013471863243 4.12982991053798 5.88923802004587 0.230040251227894 0.988034050593551 0.14529
0.14531 4.52529197567247 4.04899117262825 5.72817312844363 0.2418312650266 0.97616436826621 0.1453
0.14532 4.43178927064713 3.53096614956444 5.8014736536479 0.228547869700265 0.994707873965552 0.14531
0.14533 4.39156855536442 3.48954676257642 5.90717252682144 0.223381421479415 0.969264535767111 0.14532
0.14534 4.5142073652805 3.71190490756767 6.00372916623148 0.235230715264004 0.992953020914078 0.14533
0.14535 4.55238555711915 3.6486976606342 6.01795796724312 0.224856486302195 1.00761908993013 0.14534
0.14536 4.19920075226134 3.92532053211609 5.8132615110333 0.23127500220009 0.962330469214735 0.14535
0.14537 4.25293935109224 3.75874706236755 5.69490890532158 0.228503515593533 0.961283840044033 0.14536
0.14538 4.15161291820889 3.65550676714409 5.76418156304303 0.211122882051356 0.97245629691032 0.14537
0.14539 4.04459642790848 3.93984406361957 5.93073390872024 0.227087753365187 0.97360536352336 0.14538
0.1454 4.60311238088141 4.14332985181405 5.99070359404988 0.240325353887693 1.02816496279273 0.14539
0.14541 4.64529379331124 3.93132054074482 5.95795553645751 0.237361813257654 1.00759726850566 0.1454
0.14542 4.51845248540455 3.83297218599469 5.68775302922131 0.234324713719089 0.95605962872957 0.14541
0.14543 4.29974816928427 3.80629074975423 5.65513490630336 0.232888807170629 0.961360867424304 0.14542
0.14544 4.37256849558044 3.90849634407434 5.75324101796603 0.227319180534694 0.996915400369375 0.14543
0.14545 3.96940215021177 3.99195546357038 5.92424205354089 0.222778600856735 0.982249705207567 0.14544
0.14546 3.99141310582544 3.89735711934962 6.02040496091917 0.22036176534219 1.01216796429405 0.14545
0.14547 4.11133262920628 3.77300311120285 5.98381337314771 0.214958895859383 0.990272339618602 0.14546
0.14548 4.20860167587022 3.84222785065787 5.94879126352771 0.226007216265568 0.975661386070186 0.14547
0.14549 4.39290071333936 3.74648798720031 5.97915921624524 0.231539506543638 0.983998006738896 0.14548
0.1455 4.25796375963086 3.53331945715188 5.85269526013195 0.21085125239458 0.989042358361727 0.14549
0.14551 4.30995196790347 3.33221880909144 5.9503520915455 0.213821585647599 0.980321296579168 0.1455
0.14552 4.35878931051357 3.87473628154243 5.94612093463568 0.23131103818784 0.9856580325653 0.14551
0.14553 4.3193025144265 4.14024568098225 5.73104801484893 0.24262777618548 0.981464041195289 0.14552
0.14554 4.58409452851044 3.88847022209488 5.82926730651648 0.238920695641035 1.00793181206319 0.14553
0.14555 4.47210541455311 4.02903442975954 5.99521231682022 0.233325984177566 1.00811211730176 0.14554
0.14556 4.47948386785011 3.62350902848549 5.80742635123658 0.231753277125894 0.963131261146057 0.14555
0.14557 4.46776568616325 3.87961143428061 5.68584589138265 0.240753697070403 0.957460780643382 0.14556
0.14558 4.4724745404642 3.88996140644254 5.83576801963645 0.225252264770367 1.02469286087231 0.14557
0.14559 4.36802631852254 3.73538414205048 5.76306149864369 0.226856353939198 0.956467866684102 0.14558
0.1456 4.57174033636625 4.02818530093512 5.95252331528704 0.236138620762902 1.00469831055448 0.14559
0.14561 4.60160195902655 4.04288270193949 5.9114598539239 0.243347410886576 0.983348831311764 0.1456
0.14562 4.43799240040902 3.53789541786657 5.86447623100934 0.219398987826266 0.994868500415441 0.14561
0.14563 4.34527126688827 3.69317617812412 5.76248311121388 0.220940444974892 0.955412925810197 0.14562
0.14564 4.23937894328789 3.83067958411913 5.81739643813177 0.226129938644768 0.973369091008672 0.14563
0.14565 4.30112680936625 3.94481452010018 5.99053880972851 0.231034196058136 0.990277251792649 0.14564
0.14566 4.39945956571198 3.71275747290398 6.08247079487935 0.219828636050114 1.0231081043822 0.14565
0.14567 4.32436292433751 3.98116913742531 6.21928540760004 0.240340256136937 0.985369507141449 0.14566
0.14568 4.37683490520235 3.81928109403794 6.07151116587252 0.223572855135371 1.00748749844578 0.14567
0.14569 4.38391757883024 3.46477949673904 6.00067873847843 0.219025606174339 1.00214317126969 0.14568
0.1457 4.48341490275458 3.75119024774078 5.82994630841949 0.237003321335624 0.965557813803291 0.14569
0.14571 4.60639547910217 3.68750727255846 5.68240858791292 0.231887239486098 0.971502698447723 0.1457
0.14572 4.17121397412933 4.16747712421683 5.76100538335739 0.233131071354269 0.984284986532062 0.14571
0.14573 3.94918123741346 3.90810370949367 5.79665725835683 0.218162508867023 0.983961681425314 0.14572
0.14574 4.51272338062928 3.96448310936006 5.78736446703195 0.234305141026057 0.997117851837635 0.14573
0.14575 4.63260530256632 3.67801707848716 5.80633821678232 0.235303314104333 0.974354275428564 0.14574
0.14576 4.36226066024001 3.38603665720108 5.88006597823919 0.220677756453785 0.950797131134097 0.14575
0.14577 4.29463041040575 3.54326346589678 5.7592572386394 0.218008246138906 0.962697448028918 0.14576
0.14578 4.36531682166527 3.55468387073138 5.87014348269008 0.223993865024094 0.992189080446099 0.14577
0.14579 4.51307621314201 3.96084696617555 6.04017230615185 0.238570939351012 1.02825810396913 0.14578
0.1458 4.48649745508197 4.05423289563459 6.04471615294154 0.238714281192441 1.02178596191143 0.14579
0.14581 4.58649497327532 3.90362734195289 6.02014787492378 0.239672028091786 1.00464621200622 0.1458
0.14582 4.43304390480112 3.86608926559284 5.71380177649476 0.230671352748158 0.97220608041422 0.14581
0.14583 4.39849686806555 3.70980753437118 5.9629500440339 0.234457635049388 0.988551647153035 0.14582
0.14584 4.51975153946947 3.57331214909829 6.07313487624054 0.225584866489261 1.01495005429397 0.14583
0.14585 4.51392382877418 3.71425966483015 5.85598713257988 0.236426855109047 0.98921359469964 0.14584
0.14586 4.49448586453 3.98435720487101 5.91856959877704 0.236757837437389 0.999366954093131 0.14585
0.14587 4.58617955753431 3.82734512511958 5.78415549666181 0.236932957701555 0.983375693111316 0.14586
0.14588 4.45756835124855 3.83885608683411 5.68683552682303 0.242212811257045 0.955653434013162 0.14587
0.14589 4.43164402478473 3.64205512638207 5.78143801789177 0.225455430518971 0.974240383418532 0.14588
0.1459 4.36457340482234 4.0500596072895 5.72729235585619 0.241162796781797 0.95059178239361 0.14589
0.14591 4.11175876626713 3.80224249273323 5.87773288016261 0.213034809037292 0.989224785348287 0.1459
0.14592 4.13091601947873 3.81432907267829 5.99589973023552 0.224980826828562 0.987937515315873 0.14591
0.14593 4.41815761870767 3.62308483516651 5.95202705410909 0.227953251386519 1.01683428987202 0.14592
0.14594 4.55273127183862 3.52520024401283 5.8055032992443 0.227517575168686 0.976916232818308 0.14593
0.14595 4.55038586485065 3.97780709755153 5.85318462062045 0.237280992672968 0.990753673039731 0.14594
0.14596 4.50367058749198 3.68106910023753 5.86488973829304 0.235890539726525 0.958271753074202 0.14595
0.14597 4.44950015305453 3.87835992264795 5.89288350125935 0.231082491741578 1.02222069090889 0.14596
0.14598 4.53278741776066 3.90616686530223 6.00905261291859 0.23984252247826 0.998934918922151 0.14597
0.14599 4.23000130883141 3.826373061596 5.89364772626753 0.226331268706154 0.984468151068467 0.14598
0.146 4.27604382683661 4.03464586950338 5.9392048684933 0.235246811261547 0.996242961637477 0.14599
0.14601 4.5487269397149 4.03019378173949 5.8064452650794 0.233324731727094 1.00391801022178 0.146
0.14602 4.49901624598902 3.6766351117606 5.75930511508613 0.227924541300632 0.980425854514166 0.14601
0.14603 4.62702600390413 3.54176352425249 5.82816733208519 0.226585275915302 0.986691894152587 0.14602
0.14604 4.44334668803444 3.64727369359137 5.90949831355274 0.229022546758861 0.989307536445902 0.14603
0.14605 4.33994644122015 3.63262937643978 5.95255149783952 0.230189105140403 0.985390196884534 0.14604
0.14606 4.29255257915236 3.8369330298763 5.87370315436489 0.229221064863546 0.990776620411206 0.14605
0.14607 4.53129031027231 3.82277022741512 5.93232929586406 0.244176335371133 0.996010265125177 0.14606
0.14608 4.78706089498091 3.96611398741017 6.00323641191688 0.246832709011622 1.03125944229401 0.14607
0.14609 4.45742033316121 3.85172674770361 6.16737263709395 0.22487451396571 1.0082628960628 0.14608
0.1461 4.42629005524624 3.69038321469578 5.94019258157573 0.229823137522395 1.00927201599864 0.14609
0.14611 4.31853160003305 3.62587112231125 5.73640447404735 0.228570070322307 0.971332400933491 0.1461
0.14612 4.69281339873916 3.92489277438421 5.84674727061172 0.23960801379987 1.00483522212038 0.14611
0.14613 4.40831868290226 3.86664927894829 5.76727487633644 0.2420393895357 0.967202496456677 0.14612
0.14614 4.49940698537469 3.69229277883674 6.00884820305392 0.227618392313989 1.01168353014437 0.14613
0.14615 4.48709747176916 3.81057436296839 5.94989799752509 0.230543926712405 1.00560311837411 0.14614
0.14616 4.26528659429733 3.75366612832743 5.82810613312149 0.218931770270202 0.956726031971074 0.14615
0.14617 4.75136096599159 4.14566193185056 5.77229249833232 0.252349789954202 1.00643921803063 0.14616
0.14618 4.61680215318985 4.14326658229319 5.91260137083845 0.247658955829172 1.01519045477031 0.14617
0.14619 4.23775962676725 3.84732955290521 6.11596671700565 0.227987226778804 1.02130115001745 0.14618
0.1462 4.38970452799994 3.77112637198883 5.93010889147758 0.224540715710006 0.994836227337976 0.14619
0.14621 4.30466331271155 3.45364733954536 5.87605316203247 0.217203547723732 0.980989988536787 0.1462
0.14622 4.19702681154583 3.45201147703586 5.89690156946202 0.213983111155359 0.976461334636106 0.14621
0.14623 4.49881916782184 3.917942780802 6.113081656011 0.232410547724395 1.03312900774089 0.14622
0.14624 4.49602392991347 4.01447216104023 5.98591319436925 0.247797728013218 0.994850949567947 0.14623
0.14625 4.27233231433737 4.03053843025174 5.93669411033805 0.235804297245486 0.992859292451493 0.14624
0.14626 4.19893913964019 3.89654194323134 5.85072487289188 0.221529904253874 1.00421701559468 0.14625
0.14627 4.23209871100103 3.79861292916781 5.89518687741313 0.22375209108549 0.981935225268918 0.14626
0.14628 4.20073725530456 3.98528764588663 5.85022017981221 0.227563914493343 0.964755830359309 0.14627
0.14629 4.30317025325952 3.7158900769859 5.70041259460685 0.221181619657307 0.980654650003542 0.14628
0.1463 4.38537895891534 3.6936396270646 5.96757776351 0.221008991931674 1.0205982262218 0.14629
0.14631 4.21404864588214 3.90349773700848 5.95129649972956 0.226601330872619 1.0073356368567 0.1463
0.14632 4.41673125004617 4.06359871481198 5.95124371402263 0.23808164940621 1.00831395160268 0.14631
0.14633 4.45211092527417 3.95529680904618 5.88738666433435 0.234242850627288 0.993981527254927 0.14632
0.14634 4.31383815527483 3.88781577412236 6.1304915695869 0.224535437036346 1.03291227494343 0.14633
0.14635 4.44598909245095 4.11268512925505 6.05954582768569 0.240424626206632 1.02040907630081 0.14634
0.14636 4.50892917463721 3.9256573615642 5.95580222751526 0.235457118042613 1.00239269927048 0.14635
0.14637 4.50748047769914 3.81814244208699 5.72355352222457 0.234904974930077 0.974616499177237 0.14636
0.14638 4.55709335912677 3.89131813157467 5.81553014187291 0.23308550792292 0.98008900959876 0.14637
0.14639 4.61350036455361 3.51857682252703 5.732953895809 0.220741256069877 0.946926859185256 0.14638
0.1464 4.47583992115536 3.91537735303981 5.81480712974255 0.23250600602673 0.995398211187402 0.14639
0.14641 4.49352701931759 4.1126148928034 5.9950883442185 0.237628847879557 0.999871793325948 0.1464
0.14642 4.43867200670329 4.06552574272438 6.17971257554555 0.235635258459015 1.02601100446144 0.14641
0.14643 4.40624281570775 3.71152298744628 6.04032188140855 0.230214740695092 1.00238606973317 0.14642
0.14644 4.51711452967242 3.71502511155928 5.86428248210345 0.232296946871728 0.97897440252411 0.14643
0.14645 4.56230825679957 3.80822029746262 5.9218744184849 0.233861433559424 1.00977091911939 0.14644
0.14646 4.30187601885219 3.63767602825593 6.03182165627673 0.22018104140398 1.01200328179459 0.14645
0.14647 4.50778693846274 3.62525423817681 6.0499731981654 0.226668216835058 1.02085514143705 0.14646
0.14648 4.33049153091759 3.94046752469053 5.95649313155566 0.226149299428254 1.00387956306301 0.14647
0.14649 4.44764684999832 4.07139078884366 5.91889268215917 0.234828722951088 0.996100186826778 0.14648
0.1465 4.54588245012512 4.09947822001547 5.83573770291446 0.246306145338044 0.995302553069197 0.14649
0.14651 4.07071024627102 4.07622440184354 5.94618603919815 0.22699013970893 1.00720281645999 0.1465
0.14652 4.34353165358407 3.9457568445751 5.89240722883951 0.239832682928125 0.982393890036604 0.14651
0.14653 4.47539834721423 3.5386178258765 6.1604629110512 0.221909851721028 1.02469180150285 0.14652
0.14654 4.50247538999987 3.5308715692516 6.21066330657712 0.230132671397506 1.03988120480312 0.14653
0.14655 4.47032535150152 3.91016926736926 5.97898241274824 0.232991115157084 1.03523853817141 0.14654
0.14656 4.54834526026833 3.74937899341479 5.97466097652144 0.228959704811853 1.00480444469646 0.14655
0.14657 4.52618824888987 3.85552052956225 5.78562201283283 0.234019622425401 0.987103611728254 0.14656
0.14658 4.55774338685877 4.14505234683182 5.73344207251881 0.241137813975628 0.995574256061907 0.14657
0.14659 4.48569259726561 4.13888687946593 5.81877568054902 0.246644729165597 0.972959200047486 0.14658
0.1466 4.85259568847803 3.94790955212671 5.77541169691718 0.238345682887918 0.993445119105046 0.14659
0.14661 4.56755963238491 4.04113957151453 5.73726624765266 0.245942593766446 0.980336649217531 0.1466
0.14662 4.59573771763157 4.16747295538942 5.86837969920589 0.245742698817523 1.00319915659349 0.14661
0.14663 4.24205122350286 3.81764031020961 6.02168346182087 0.222780972715047 1.02321640055508 0.14662
0.14664 4.14133946981561 3.55524717568053 6.1362484168901 0.210035918833896 1.01567123839984 0.14663
0.14665 4.12933159346604 3.83496538823138 5.98329759079871 0.221032061909899 0.986348247884867 0.14664
0.14666 4.48158801765921 3.77988488398239 5.87463475470485 0.231416847334447 0.992333759254591 0.14665
0.14667 4.55261000711379 3.82844351524033 5.71580520061149 0.238093784175613 0.961280634163683 0.14666
0.14668 4.51111507840928 3.84016901940895 5.93392944944753 0.224799902478567 1.02038889103537 0.14667
0.14669 4.58180320502202 3.79120421111177 6.00100352551671 0.23493399888317 1.02567477082003 0.14668
0.1467 4.79410392368371 4.0231339264777 6.00691971202651 0.253951800510698 1.00208845630568 0.14669
0.14671 4.75457029286261 3.71929405974369 5.85938019735904 0.236276890068962 1.01833524232909 0.1467
0.14672 4.16997354760413 3.80074720098753 6.09856920710234 0.223703509125819 0.997254822555746 0.14671
0.14673 4.28087139541997 3.96540475466199 6.01404595713621 0.234713052707422 0.98219882291686 0.14672
0.14674 4.38126170740812 3.68060459552464 6.05297023322967 0.219164520922944 0.99469092382323 0.14673
0.14675 4.3109108476629 3.86906108326175 5.85753346980627 0.229822144536498 0.996173833659175 0.14674
0.14676 4.55849008495586 3.76635697387493 5.94638520654694 0.233685024559281 0.992748333373412 0.14675
0.14677 4.65938597810441 3.73973079545845 5.7730695234421 0.2315665310019 0.987703372336621 0.14676
0.14678 4.686296790601 3.71081700033427 5.91945561551509 0.236972781194224 0.997581251731739 0.14677
0.14679 4.68508419859569 3.77082981401106 6.1652707990346 0.238847964648677 1.03459603946712 0.14678
0.1468 4.72598261718495 3.78540981630117 5.98428297900879 0.239752937209757 1.00878043477245 0.14679
0.14681 4.7246023936736 3.85295653008877 5.89923824970761 0.240452214664554 1.00846558684043 0.1468
0.14682 4.26022385351929 4.15141204537346 5.99768557377697 0.233275637245517 1.0091567693795 0.14681
0.14683 4.63522758960299 3.94954499797627 5.86245059743469 0.239526885736947 1.00537078248553 0.14682
0.14684 4.55628748750423 4.15364053570398 5.74803056386741 0.24517930510216 0.957547931724144 0.14683
0.14685 4.386590066918 4.13056033569539 5.80791811769205 0.247540862159527 0.994548586811758 0.14684
0.14686 4.5062026415958 3.77750108909182 5.96804849333584 0.231087530931024 1.01935166187017 0.14685
0.14687 4.33084862117122 3.75999518582766 6.1265594777131 0.227550976910992 1.02519377004991 0.14686
0.14688 4.41699085864825 3.87801463672959 6.15258326800195 0.235079878993346 1.0140140433345 0.14687
0.14689 4.56091614582752 3.72640626055455 6.02355209397297 0.230638120662027 0.99960750242432 0.14688
0.1469 4.42416877083403 3.91996184193192 5.85809843054467 0.233787214244127 0.980536557780433 0.14689
0.14691 4.27754693549405 4.01429629078695 6.21950684962489 0.232344384099045 1.03234999051868 0.1469
0.14692 4.19315274323061 4.0614235788307 5.92061225761442 0.229446399437903 1.00563603301569 0.14691
0.14693 4.45242109526049 3.97798332994916 6.10811650769841 0.23172874964065 1.04044839617254 0.14692
0.14694 4.6362624218558 3.94260901452847 6.07737097166856 0.248168981404138 1.01025901181168 0.14693
0.14695 4.59074002367067 3.86306314483465 5.87995910273607 0.238884898181467 0.980857731618905 0.14694
0.14696 4.44994597740854 3.93196458306749 5.8561735471848 0.237271494722013 1.0048285909401 0.14695
0.14697 4.54965672528856 3.65937980895805 6.08067553746898 0.230342338850215 1.00739828739758 0.14696
0.14698 4.45421985176577 3.48350871865734 6.25160392140973 0.228672426091973 0.99769741793747 0.14697
0.14699 4.4918173322834 3.51674881052442 5.93823843016421 0.21519409346352 0.99906182147371 0.14698
0.147 4.68822924546228 3.98705276906541 6.04178786554423 0.242175828777218 1.05006675991361 0.14699
0.14701 4.68059098694139 3.74782714917344 5.94688872948566 0.240355416297135 0.978914657030992 0.147
0.14702 4.65771162456323 3.67778387663391 5.87172667262965 0.2286541064289 1.01287160055194 0.14701
0.14703 4.28672552740381 3.7457398680297 6.01664311731872 0.221585931751865 1.01052544705287 0.14702
0.14704 4.7156212335397 3.86253142049259 5.9611288203048 0.237919398025414 1.01421181624053 0.14703
0.14705 4.50794362332967 3.75682678315917 5.90244404948854 0.231836697787593 1.02182786620422 0.14704
0.14706 4.58736214238161 3.87279352020567 5.88677690710194 0.238440716302299 1.00459803025062 0.14705
0.14707 4.39598630090829 3.77892727752966 6.04056273198897 0.240684131466704 0.996235107406332 0.14706
0.14708 4.50323237355565 4.10351156277824 5.8196871078312 0.244560601292532 0.982689945925618 0.14707
0.14709 4.32844175981859 4.10611082800771 5.87239588916444 0.237243225819707 0.983097997946187 0.14708
0.1471 4.77754806885481 4.52263291157361 5.81457947476614 0.258958580568548 1.00737741501979 0.14709
0.14711 4.32814433894346 3.90014074316477 5.77051770989456 0.229457126076154 0.968153532426119 0.1471
0.14712 4.21634905735629 4.22394564123395 5.8833350602768 0.232380212136187 1.00249187967347 0.14711
0.14713 4.29720827698329 3.99094019421063 6.07891989504105 0.227820196857209 1.03885271804489 0.14712
0.14714 4.49696655984725 3.83653917905158 6.11967653475007 0.239144408858011 1.00331522325325 0.14713
0.14715 4.72225810480165 3.94425448732256 6.10344903874893 0.24070426377889 1.05288260522127 0.14714
0.14716 4.39166329708352 3.94954902659223 6.15216647566735 0.240324787516608 1.03088492408707 0.14715
0.14717 4.40993460540255 3.82847378376154 6.12066049761618 0.230210063060523 0.992756915981394 0.14716
0.14718 4.25277583244183 3.82225822902004 5.94694909143322 0.224252555093784 0.997282626640356 0.14717
0.14719 4.44264337641757 4.1053174331694 6.10881727536547 0.241080889019584 1.00517258154534 0.14718
0.1472 4.50410380050465 3.88355359180747 5.9269455985761 0.233842856719062 0.97743231415193 0.14719
0.14721 4.5681770246027 3.88644638610105 5.83761081968377 0.229450659311869 0.997156912070626 0.1472
0.14722 4.50076660268451 4.08979234125748 5.70317206984395 0.241631958296964 0.976871011509713 0.14721
0.14723 4.56580659980318 3.86734037440202 5.73986214714935 0.237268076525903 0.988948974964475 0.14722
0.14724 4.63780118811074 4.2735073053755 5.90079109885944 0.253064174968121 1.019189079309 0.14723
0.14725 4.65782256702209 3.99176281187891 6.12118281975651 0.231899924498588 1.0548223763487 0.14724
0.14726 4.03450050709013 3.69352134072499 6.17446265721152 0.211589393173461 1.02965592595114 0.14725
0.14727 4.56098147913998 3.6820289197215 5.94912640216689 0.227720301828938 0.994707302823463 0.14726
0.14728 4.39387126086915 3.63998789124099 6.02019370743485 0.230630718346152 1.00303044423668 0.14727
0.14729 4.85215522345131 3.86795038944826 5.96431099648772 0.24330889796584 0.997107570813721 0.14728
0.1473 5.0034303073209 3.75807903056912 6.21672747185083 0.24869874685578 1.02030606426707 0.14729
0.14731 4.63891198542837 3.54083694105549 5.90493564439124 0.231576666937486 0.99600584236368 0.1473
0.14732 4.40912859594557 3.8727713783398 5.85496001311007 0.23259607635665 0.979631030334639 0.14731
0.14733 4.35280315736719 3.68348201638003 5.86971408454475 0.229710211802073 0.960320146963727 0.14732
0.14734 4.21903746880548 3.69308611735923 5.78513597847189 0.218963462998093 0.962654401669727 0.14733
0.14735 4.41923760730728 3.55077371446759 5.79350863238093 0.230795528801607 0.971196051258993 0.14734
0.14736 4.56550391191036 4.10972085078023 6.06803039401337 0.244272100109991 1.04555706715112 0.14735
0.14737 4.57989530487403 4.13588775357098 6.087099418562 0.250894084153346 1.00467605966693 0.14736
0.14738 4.62723657852859 3.84675343213938 5.82353153165661 0.239519447238425 0.990750238421484 0.14737
0.14739 4.13312260862361 3.83067521959727 6.02735905078877 0.221551962014425 0.976681279040451 0.14738
0.1474 4.1548313864694 3.55145970722156 5.86746522479935 0.219230893359824 0.986127038658541 0.14739
0.14741 4.47598102946203 3.85466929960254 6.14313130306527 0.232171586988565 1.01801833693356 0.1474
0.14742 4.33475766494685 3.91440368277762 6.05410939931658 0.231222825358286 0.992074455304802 0.14741
0.14743 4.48794344318074 3.90667952584593 6.04873070469433 0.237962722422821 1.00709011224764 0.14742
0.14744 4.24893076347256 4.02958770792691 5.94335030011818 0.228042863990907 0.983052563255097 0.14743
0.14745 4.17037313183307 3.66941724473119 6.09174423824094 0.220184850071297 1.01746049653924 0.14744
0.14746 4.33570236188229 3.758255301745 6.10972467266727 0.23156583507263 1.02168500546271 0.14745
0.14747 4.48768971626103 3.93910076076471 6.04920911169779 0.239687536686353 1.00456236142549 0.14746
0.14748 4.41651900160207 3.57935873720219 5.82631225657139 0.229601229736411 0.979611647483326 0.14747
0.14749 4.60499265002354 3.8661941370041 5.75963794483314 0.232565970695402 0.982207932366718 0.14748
0.1475 4.65601743875502 3.91059231444013 5.9251578969999 0.236351124039804 1.01171377279575 0.14749
0.14751 4.63762727040911 3.85702935514504 5.90451868844829 0.246638451864789 0.979391233736316 0.1475
0.14752 4.35123935483271 3.78067357898311 5.83252870223203 0.229890635241399 0.970695591836838 0.14751
0.14753 4.47948767301057 3.83147490916989 5.96914716671033 0.23478761838343 1.00179121602265 0.14752
0.14754 4.69451949090235 3.51508705712429 5.72895129044549 0.232730262621256 0.944359962018867 0.14753
0.14755 4.47601322828839 3.72291178638364 5.83354522718718 0.227825417954268 0.995544617734871 0.14754
0.14756 4.51837983903968 3.89443072275242 6.05698563886395 0.242948253487177 1.00084491252531 0.14755
0.14757 4.38080645803362 3.96274721876249 6.18898530914488 0.221517510174186 1.03157816707088 0.14756
0.14758 4.3644219370822 3.65942563265771 6.23663214263912 0.227319825233019 1.01975588550602 0.14757
0.14759 4.51510279685679 3.80629204196446 6.1670951349569 0.232020409148076 1.03214155402023 0.14758
0.1476 4.46028534752908 3.85249931966438 6.05018646114661 0.231197037108047 1.01884735743048 0.14759
0.14761 4.19288927408309 3.64729015666789 6.11462522148666 0.212302158459083 1.01928617198585 0.1476
0.14762 4.53781589497624 3.5853091471837 6.06326229426813 0.224782129448916 1.00104449909768 0.14761
0.14763 4.24779949312884 3.55546137683843 5.98112758084029 0.221637234292517 0.983745031006107 0.14762
0.14764 4.29711877973797 3.67293060495995 5.85907197399539 0.230821994848173 0.987247191485573 0.14763
0.14765 4.58795385210107 4.25607708212266 5.79948595834622 0.245439842625243 1.00606387587912 0.14764
0.14766 4.33389237215924 4.03227052864384 5.71081366069552 0.23502656461164 0.977101322495481 0.14765
0.14767 4.55259663904286 4.04770983071316 5.84921030350701 0.241485470608254 0.9986459427992 0.14766
0.14768 4.36702710100624 3.89224801708855 5.90705052360155 0.230576507208661 0.980632387416232 0.14767
0.14769 4.67413055240423 3.65335641169898 5.91227656052079 0.23106685639534 1.00866249727415 0.14768
0.1477 4.68232297005713 3.50002766266831 6.0997408625222 0.230260211218407 1.00857213601031 0.14769
0.14771 4.57061009549053 3.50678566583383 5.92437772625686 0.225649503049041 0.99967893558685 0.1477
0.14772 4.80468576312438 3.52980461278902 6.05492725151614 0.23642678771423 1.02799176234405 0.14771
0.14773 4.74079010912113 3.81407332172699 6.12570335980241 0.24833263754806 1.01470992612044 0.14772
0.14774 4.64652997366255 4.0274013408125 6.03730933213145 0.241818109008783 1.02161964324997 0.14773
0.14775 4.57721593442895 3.82017981608569 6.01924033873496 0.236343864651013 1.01522990944648 0.14774
0.14776 4.46575395229285 3.87241116531924 6.08316743507035 0.233895507564185 1.00802272890434 0.14775
0.14777 4.34713254714658 3.73424091768658 5.97201618657104 0.219588859784235 1.02469249640648 0.14776
0.14778 4.45396659356636 3.71107265079035 5.88999692413077 0.227040278102087 0.977858737117372 0.14777
0.14779 4.64139546798875 3.82265348993844 5.88955159769424 0.23698822560091 1.00356377404015 0.14778
0.1478 4.7062532419524 4.00059358250186 5.90785870194022 0.243459465373488 1.02378004064363 0.14779
0.14781 4.69586289214857 4.02325460209681 5.96661532949305 0.237850416601981 1.02394098922059 0.1478
0.14782 4.40000149284014 4.0291497982762 5.82022539580007 0.241210389796998 0.965347389183071 0.14781
0.14783 4.5323740979239 3.97381417454252 5.83595284653209 0.237173472792422 1.01180090151277 0.14782
0.14784 4.52089001522316 3.7933205959723 5.86979711378496 0.235811063617979 1.01021686616888 0.14783
0.14785 4.59328259194508 3.99735607177886 6.03875215741033 0.239355858935595 1.02943321745368 0.14784
0.14786 4.42838548431404 3.708172321269 5.97708104228337 0.223155166894712 1.00208539986765 0.14785
0.14787 4.45602964857066 3.82516643701507 5.88446081575534 0.227842298348349 0.983622662656227 0.14786
0.14788 4.35244492190771 3.95006829940581 5.93105512087196 0.235224346923082 0.991145575554822 0.14787
0.14789 4.42773233034385 3.82874724430261 6.10194299666607 0.226409510639026 1.01097411041132 0.14788
0.1479 4.3920330142924 3.73525152852663 6.24637030872657 0.224134424990789 1.01976260807135 0.14789
0.14791 4.51383314969141 3.50831388122217 6.03434956694318 0.223740230736776 0.986419455203758 0.1479
0.14792 4.53341667316562 3.73557565271531 5.86955985006605 0.234732491491139 0.998454657807338 0.14791
0.14793 4.59345158589335 3.95423814543291 5.99348042935903 0.233210704645206 1.0110388796114 0.14792
0.14794 4.79783948474459 3.87668239281532 5.93973892265767 0.244169230858302 1.02646632613933 0.14793
0.14795 4.63231504713505 4.09325175980833 6.0872056445867 0.245478264205492 1.02808087515072 0.14794
0.14796 4.25002675856473 4.15887745679347 5.91128895542004 0.237381346428527 1.0195539622374 0.14795
0.14797 4.36830010536391 3.83379502617684 6.01367288135853 0.230042377145141 1.00030384103138 0.14796
0.14798 4.25953234970823 3.57245070683455 6.01697602028333 0.214523177858333 1.01530520931511 0.14797
0.14799 4.35118691400694 3.77703715754085 6.06445767613607 0.234558367451256 1.01340040351063 0.14798
0.148 4.76640697226916 3.79860991534391 6.06062727392283 0.237875981752208 1.02088175860099 0.14799
0.14801 4.57271219944669 3.73688738967292 5.9171706818979 0.226670334480584 0.992706391341761 0.148
0.14802 4.32884325086702 3.95971965035406 5.75687679441165 0.225429356685086 0.989790021626398 0.14801
0.14803 4.52814153027495 4.15037297989701 5.56473557472073 0.249928444461302 0.958295415242877 0.14802
0.14804 4.40415161184804 4.00083297204623 5.77971436713343 0.235367109918435 0.998390266354958 0.14803
0.14805 4.41654820153143 3.90645789778715 6.15675306215536 0.230594277173921 1.04333238013812 0.14804
0.14806 4.48330804676412 3.61764240141171 6.33745213407097 0.228622633052003 1.04279358154466 0.14805
0.14807 4.45457950488418 3.62569607910015 6.15973301443108 0.222578431424522 1.00562816881355 0.14806
0.14808 4.53023799283713 3.93083305297031 5.727641357575 0.236023525425491 0.995023531333034 0.14807
0.14809 4.48115724648109 3.9293829858545 5.84118381007083 0.234597712002151 0.98553344444426 0.14808
0.1481 4.56145801275348 4.21820079202347 5.83812325915184 0.247173336038383 0.98677070063124 0.14809
0.14811 4.61509578539536 3.99336228506291 6.09428994489533 0.242815118051781 1.02990521378479 0.1481
0.14812 4.02937106545252 3.67392264853106 5.99326879429968 0.21943426748158 0.979897057719208 0.14811
0.14813 4.50346752068188 3.97503019138767 5.82132927101512 0.227718928556476 1.00923174891409 0.14812
0.14814 4.43590749109558 3.98553273800823 5.81867978995904 0.234294544966962 1.02443832454995 0.14813
0.14815 4.96185302398348 3.84269993032131 6.00181930497182 0.251526606950002 1.03457387573388 0.14814
0.14816 4.7703228894489 3.80738937009344 6.01618385382578 0.240772885877824 1.01383267552648 0.14815
0.14817 4.34768032350559 3.80676728004919 6.2440851009712 0.223297693045106 1.05130001099026 0.14816
0.14818 4.34861660957469 3.79575407685872 6.07006761595106 0.229082725892662 0.994551071464626 0.14817
0.14819 4.45735889277371 3.81607601744916 6.15682144875677 0.229602859481446 1.03441953087322 0.14818
0.1482 4.29170685219116 3.26830994175591 6.08353289741229 0.207953022939504 0.996497069764303 0.14819
0.14821 4.59324898224796 3.563227238686 5.82394132327382 0.225306325704203 0.995762927807009 0.1482
0.14822 4.59960644489683 3.45606141877373 5.83098209625307 0.229381943833409 0.992433636750048 0.14821
0.14823 4.73186175822797 3.93184169999133 5.73398887589805 0.24202206009897 0.994402024211731 0.14822
0.14824 4.79633916274523 4.22322493593797 5.93655759394674 0.256233723957892 1.02023943033651 0.14823
0.14825 4.40108010646435 4.08091479121479 5.8102007051986 0.234980045024927 0.978578587659222 0.14824
0.14826 4.39167958602145 3.90713049519099 5.99104058907664 0.22968700554571 1.01914831980257 0.14825
0.14827 3.9969046371099 3.29908581798655 6.19823909771793 0.208196576302154 1.00515934581634 0.14826
0.14828 3.98109154024158 3.24972849303716 5.96489924887265 0.199625722049303 1.00008184682665 0.14827
0.14829 4.26033416278554 3.39966107197868 5.95587122583504 0.21400052546989 0.979177689029336 0.14828
0.1483 4.63877335292558 3.32805343392496 5.83151789648228 0.221933694535675 0.972517748543034 0.14829
0.14831 4.5951805024116 3.566346602518 5.80929808411309 0.23306446951039 0.968183098424936 0.1483
0.14832 4.36374616341523 3.32812407077325 5.65660942032758 0.216130074611194 0.953615101156638 0.14831
0.14833 4.09445509237965 3.55546668336427 5.71653734913902 0.208129030096964 0.967773454140346 0.14832
0.14834 4.08989776325288 3.9045241817452 5.77067419821531 0.225336816993813 0.97222432943354 0.14833
0.14835 4.49161793501918 3.85946634009719 5.73953285097847 0.236818037883945 0.975913432542542 0.14834
0.14836 4.33521172827641 3.75219841209027 5.90333755405847 0.227405925147319 0.978843896265077 0.14835
0.14837 4.47699446258164 3.79634722567112 5.97697313971176 0.233179852616739 0.988545032656147 0.14836
0.14838 4.44641494967964 3.593659756974 6.00223937346718 0.229270662790347 0.993114312153053 0.14837
0.14839 4.26397834233655 3.67181135067658 5.8604387390384 0.219097409714788 0.971963405311674 0.14838
0.1484 4.29908631721308 3.76340950010701 5.94591492427958 0.219078507063765 1.01743642780635 0.14839
0.14841 4.35489155396598 3.5768992410363 5.7876254179704 0.221421888212502 0.9601394208262 0.1484
0.14842 4.29103230390921 3.57503813199667 5.67406899745716 0.223836750196135 0.961424221338578 0.14841
0.14843 4.2932741687138 3.5194524673412 5.77630326086037 0.220605236201499 0.95384760483152 0.14842
0.14844 4.58639081801324 3.88447806965226 5.71196797335088 0.240455369803876 0.97888549401888 0.14843
0.14845 4.53245112813983 3.37322455274155 5.68937210258653 0.220203128601317 0.975075629243992 0.14844
0.14846 4.55704088569837 3.55139130819576 5.68425758478966 0.232229182151597 0.958358279080002 0.14845
0.14847 4.735913314486 3.29229572979479 5.93218537595253 0.227672779392681 0.977076215645717 0.14846
0.14848 4.50703156970727 3.49742348687559 5.68193749099862 0.221129444431888 0.933017211871657 0.14847
0.14849 4.35753273120345 3.39359548906119 6.03809370466927 0.21257670249037 1.01895405360387 0.14848
0.1485 4.29198611746444 3.54587848247795 6.10421098603597 0.224178877556644 1.00347136598492 0.14849
0.14851 4.19988136946109 3.60078173045628 5.90495987599622 0.215898655943259 0.961520131665014 0.1485
0.14852 4.36510571378921 3.53781292801953 5.77021269776893 0.219779282119773 0.958180175957637 0.14851
0.14853 4.21838746216187 3.36747131436569 5.68418112622599 0.207638498808737 0.947120241616854 0.14852
0.14854 4.15117865474042 3.63257883203683 5.82632709382692 0.212358742313486 0.996731963130519 0.14853
0.14855 4.53661675497312 3.5794394562457 5.8368992987382 0.225048669963568 0.981085718040093 0.14854
0.14856 4.24958565330527 3.52206849904217 5.87307374368144 0.220029924841361 0.979261332327586 0.14855
0.14857 4.54036883020866 3.32840262156728 5.95857850894613 0.225479605324637 0.990244073018431 0.14856
0.14858 4.29338111996832 3.49767862841022 5.92205719939675 0.215466635740475 0.978026375573058 0.14857
0.14859 4.17367347439949 3.98376982360242 5.84065023994664 0.225366321218718 0.978019923112537 0.14858
0.1486 4.5459990478745 3.7621798229846 5.82325759613772 0.234842592362305 0.980016865466132 0.14859
0.14861 4.42938718613253 3.59982611588819 5.82212140620033 0.218523432746671 0.984210557236218 0.1486
0.14862 4.38041051490692 3.70445892929134 5.92838890399017 0.229096121508431 0.967033992666534 0.14861
0.14863 4.62474486401716 3.42380321978552 5.75558226738561 0.226195770320866 0.972470162901798 0.14862
0.14864 4.46046860688772 3.79802777422128 5.84226914146319 0.233854139755876 0.988403260723948 0.14863
0.14865 4.37043254949502 3.64010483879416 5.88522510384238 0.219799052692634 0.975278640344637 0.14864
0.14866 4.22167993745303 3.60097341554899 5.68948752847465 0.222353797308779 0.954581133922263 0.14865
0.14867 4.29366630527091 3.52881132047688 5.88387363069044 0.218946058780908 0.966279593342728 0.14866
0.14868 4.22847850758323 3.40911531810631 5.90871854992548 0.212064220190138 1.00256400065362 0.14867
0.14869 4.44556939067228 3.73209694397422 6.08371211555844 0.227532303160713 1.0026870924462 0.14868
0.1487 4.35420580423232 3.8776634245921 6.07044355707249 0.23381212535999 1.01523926448157 0.14869
0.14871 4.42617689044832 3.60219041875504 5.8345561805955 0.227987208649736 0.971688784873345 0.1487
0.14872 4.28716048286889 3.47811460010439 5.81579460989873 0.215632250757762 0.98292087884509 0.14871
0.14873 4.42507344396244 3.5398478753009 5.76690505414784 0.221646193053125 0.979355019981536 0.14872
0.14874 4.57049540529092 3.67143101822519 5.80495774087443 0.233554472049515 1.00151527780851 0.14873
0.14875 4.3758198227693 3.66269780032882 5.94645122169347 0.222507552044042 1.00612949003289 0.14874
0.14876 4.32530402250909 3.75822653346978 5.78604142154612 0.229412069520022 0.946250519979409 0.14875
0.14877 4.39174946822216 3.55295824292992 5.75664781934432 0.219867101953655 0.971517049185939 0.14876
0.14878 4.36266085398751 3.63612246043647 5.80142367862026 0.230879582332697 0.964293682636024 0.14877
0.14879 4.47088692456078 3.55538563549756 5.86996898220243 0.224259069995351 1.0010366826942 0.14878
0.1488 4.46168325853305 3.42327085127272 5.96107009378984 0.217456022624199 0.989199957664934 0.14879
0.14881 3.9578639026262 3.56299354563162 6.15792431549162 0.211302089327858 1.00773350249623 0.1488
0.14882 4.26074074429457 3.3134498536956 5.90960397816676 0.216500341138472 0.977584679465702 0.14881
0.14883 4.31766758329138 3.69826591578736 5.81289018820325 0.228274683985598 0.991509463283486 0.14882
0.14884 4.4507319952385 3.83731217073416 5.78833215199301 0.222560408432734 1.00898899049443 0.14883
0.14885 4.34155569031208 3.54608824116254 5.87972780527962 0.225547983472376 0.962349551347922 0.14884
0.14886 4.41955055788315 3.54529917739915 5.87471821928205 0.228685930893105 0.957249212945406 0.14885
0.14887 4.45567876654267 3.71375318582402 6.00881188489506 0.22257021312965 1.01994911931517 0.14886
0.14888 4.3317831035639 3.76688140143245 5.9738329934636 0.232621046717577 0.977279507389523 0.14887
0.14889 4.24217947705596 3.67231888165444 5.84420293140412 0.224467292704025 0.991882424830839 0.14888
0.1489 4.0642415558977 3.44006601272651 5.88316410818206 0.212697314840528 0.958918276797734 0.14889
0.14891 3.95240668897956 3.74636944409331 5.78136566015329 0.215112097485336 0.956007638496805 0.1489
0.14892 4.24356373096457 3.82539190616645 5.80129370245227 0.229881265599365 0.966312425385276 0.14891
0.14893 4.3342799496286 3.67209327594123 5.88439324641716 0.22107142084066 0.998186740936051 0.14892
0.14894 4.41634215988506 3.85741260938647 5.90706369911246 0.231421997253182 1.01399917230898 0.14893
0.14895 4.59569107573035 3.71319758304306 6.04132785683168 0.239003766590537 1.00494218077963 0.14894
0.14896 4.18837183111958 3.64440527310931 6.02334964379683 0.22758210379241 0.969175478073939 0.14895
0.14897 4.30259967350716 3.42636915883219 5.96229448728341 0.213593115603191 0.972073801806492 0.14896
0.14898 4.40616605892943 3.42960115949708 6.12047593487222 0.219964309581982 1.00889822094161 0.14897
0.14899 4.70444808786797 3.78649715614179 5.86229688043048 0.241199177638884 1.00969295197641 0.14898
0.149 4.67493267172168 3.8099581600573 5.93628572827529 0.242649280496031 0.993122628342236 0.14899
0.14901 4.33976115221123 3.60602776236803 5.63858658702405 0.220300847296441 0.948353089817411 0.149
0.14902 4.35217061135218 3.25902811612366 5.68655729185864 0.212452762395717 0.950583068926425 0.14901
0.14903 4.33545838317447 3.46939313068664 5.77630360438376 0.22230590066951 0.970931244815496 0.14902
0.14904 4.59744673519579 3.43449144234951 5.64611500480191 0.226255846451169 0.950485475226915 0.14903
0.14905 4.51023082342146 3.42446077025959 5.87828793634101 0.224799984120856 0.959200013129507 0.14904
0.14906 4.39763664160005 3.29463453051862 5.74708651011362 0.208568747092695 0.981792137429535 0.14905
0.14907 4.83988411592245 3.53622538727065 5.75756139331428 0.244051586893364 0.981108334653029 0.14906
0.14908 4.88158818581954 3.75913304387136 5.95947500241089 0.242490461033812 0.998036620812098 0.14907
0.14909 4.76009490650948 3.74665774739231 6.01542070755995 0.242975269119415 0.994931312050235 0.14908
0.1491 4.36761644256219 3.43668269329184 5.93503891874478 0.212610075576205 0.97701444087224 0.14909
0.14911 4.2697678062216 3.29983995930691 5.98042958638195 0.214001716138055 0.995782034187576 0.1491
0.14912 4.08159770639894 3.22401378515417 5.82949495026801 0.200003577704442 0.974979081647549 0.14911
0.14913 4.368827038494 3.69553739569513 5.85250650216561 0.225651664299228 0.998676610027695 0.14912
0.14914 4.39740882033396 3.89978139413382 5.77047933957751 0.231426274620124 0.980369714105356 0.14913
0.14915 4.35132070619723 3.93031468599513 5.7213360697017 0.230481456499236 0.978104590828494 0.14914
0.14916 4.17812085806744 3.88775642431838 5.81926584747356 0.22940353538389 0.966132409329881 0.14915
0.14917 4.25357458693886 3.55474263698738 5.92891832968539 0.218877374503075 0.981520362207183 0.14916
0.14918 4.25801246008921 3.30019118715371 5.97399729688998 0.214718510010471 0.982753984457987 0.14917
0.14919 4.41382519424003 3.76539014780558 5.98380537317977 0.228704518190903 1.00330471579947 0.14918
0.1492 4.3837620196117 3.51890927118567 5.92401470669996 0.222192740032046 0.969306397004658 0.14919
0.14921 4.57949107096131 3.84353769455825 5.99747421521244 0.237850815180647 1.02593832095728 0.1492
0.14922 4.29111492407092 3.63668542233771 6.15165783588049 0.221774742342205 0.990952520995337 0.14921
0.14923 4.17434253374659 3.54890300644036 6.14397824013656 0.214437150691079 1.00258684110791 0.14922
0.14924 4.47584143734042 3.59137344308075 6.01886551904297 0.225767902443882 1.0047837638609 0.14923
0.14925 4.35699504022056 3.62965186459422 5.80254240327958 0.222512033246428 0.969279895815668 0.14924
0.14926 4.50781151843143 3.55404964632518 5.66583737193728 0.23043955700141 0.945965746711564 0.14925
0.14927 4.5047091491657 3.67165347015201 5.67041893761105 0.232680542884534 0.960176865773493 0.14926
0.14928 4.32376839925255 3.73104617026679 5.94100547744426 0.228825920713531 0.965473973211928 0.14927
0.14929 4.40760850369294 3.72989908744619 6.05217527409799 0.227327039909071 1.0130878359624 0.14928
0.1493 4.65876468110402 3.46160121433646 6.06324663473262 0.229800173826568 1.02173444165613 0.14929
0.14931 4.5685940405179 3.37047563874077 5.9254685449294 0.223394143646886 1.00120130308503 0.1493
0.14932 4.43163524278759 3.51260450790966 5.7881803115607 0.225036607711114 0.981271983966455 0.14931
0.14933 4.53813796249838 3.38087642026283 5.76323845806517 0.220726269322812 0.984454857942881 0.14932
0.14934 4.39628753318566 3.18179388175819 6.11321502274643 0.214474784678462 0.996187290195273 0.14933
0.14935 4.81417968213758 3.56613472851755 5.98106706098511 0.233272576055596 0.991813684573957 0.14934
0.14936 4.61841677513739 3.96619521372205 5.86640900404327 0.240315055955989 0.982345727869695 0.14935
0.14937 4.52714202364984 3.92469413216961 5.7467526111302 0.237666742830104 0.979819092769639 0.14936
0.14938 4.44105693948359 3.84630564854039 5.54850915209826 0.240588007867381 0.939186289008855 0.14937
0.14939 4.38089023655928 3.67153029056727 5.93330649764744 0.221660409661331 1.0005445714795 0.14938
0.1494 4.16350704898419 3.3821542965075 6.0166030962069 0.214999919265647 0.991849936289083 0.14939
0.14941 3.9748125265123 3.32099758044763 6.13927597592455 0.201431966056556 1.01091992162267 0.1494
0.14942 4.41801349720121 3.81053496842331 5.99274410988798 0.230524352037268 0.984438262340187 0.14941
0.14943 4.11836489347051 3.60647161357556 5.84684332946849 0.212018153150667 0.996700736644072 0.14942
0.14944 4.38226075536732 3.88939948199934 5.98020210012421 0.223676197083339 0.992267220672645 0.14943
0.14945 4.54783556068461 3.96807115275938 6.12492616692123 0.239178716314321 1.04840680820677 0.14944
0.14946 4.46925045145983 3.84115683947279 6.17786986681908 0.231066857457782 1.01981089492088 0.14945
0.14947 4.24320024015503 3.54228387621389 6.10454597447604 0.217770203743084 1.00657468664563 0.14946
0.14948 4.37305601061813 3.68805460615394 5.94256288819964 0.237174710831575 0.997058762522021 0.14947
0.14949 4.27419960856077 3.40923499047495 5.79940197338657 0.21662829024113 0.958704851135925 0.14948
0.1495 4.43912904620615 3.90995883679929 5.83128407648734 0.235974536186461 0.973385321242515 0.14949
0.14951 4.67412441586868 3.72388434608744 5.68278548332301 0.232322037251283 0.985320705423683 0.1495
0.14952 4.44063203471618 3.73947482290195 5.83543726283174 0.225933402652536 0.986897103199842 0.14951
0.14953 4.17625438062385 3.75272213993357 5.89732588123324 0.225999804462742 0.972149669006655 0.14952
0.14954 4.21027138895433 3.5063249532103 5.94473711533999 0.215929471942006 0.97203434506556 0.14953
0.14955 4.45264568662919 3.3689476754502 5.9382668596019 0.217656974899839 1.0267639539548 0.14954
0.14956 4.63108976497029 3.48787655026321 5.96702059275279 0.236221622232577 1.0006909041043 0.14955
0.14957 4.66567456189778 3.61020175669511 5.89285213924621 0.235360845637601 0.988536218405448 0.14956
0.14958 4.41010657810302 3.73282815430095 6.03589670104401 0.223567342147822 1.02680712336039 0.14957
0.14959 4.43883957140332 3.57109446870655 6.12405302583917 0.231726482919216 0.999560753502175 0.14958
0.1496 4.16068897525748 3.70351834794025 5.9106141839823 0.216883754601773 0.978962890024036 0.14959
0.14961 4.63337052803076 3.6758624010308 5.89035887412129 0.234634913335981 1.00876744452804 0.1496
0.14962 4.69618673677577 3.78094724340897 5.90083464443552 0.245595055434994 0.97732256569637 0.14961
0.14963 4.20076657564772 3.63374022124577 5.95922430394843 0.218741198106642 1.00951806562553 0.14962
0.14964 4.20787223431585 3.56901573680212 5.80374335068555 0.218579733732088 0.97169488100898 0.14963
0.14965 4.31927488466144 3.68575621432849 6.17365535376478 0.224400240160483 1.02884391297918 0.14964
0.14966 4.44678307040355 3.73201229686742 6.0773479691622 0.231331103467237 1.00749466264443 0.14965
0.14967 4.12334898651125 3.75912934968668 6.17310407840003 0.213172201038028 1.02542459953792 0.14966
0.14968 4.13532137627725 3.47465217144817 5.96378929992663 0.221082549880041 0.97845956013029 0.14967
0.14969 4.47204325755235 3.72874468765071 5.82911324174176 0.244525801955806 0.957015486972654 0.14968
0.1497 4.60401678748835 3.88331569085948 5.86656642398885 0.242383870488653 0.99084438310098 0.14969
0.14971 4.62213474236408 3.87371557131131 5.95830539933463 0.243025787432293 1.00607130639318 0.1497
0.14972 4.31139332331543 3.64214263605021 5.73304114361075 0.219617066267849 0.962765623358264 0.14971
0.14973 4.04036825923615 3.49401104645357 5.79519313498545 0.211442213145782 0.962007368375308 0.14972
0.14974 4.07029847340007 3.48395261637646 5.87798176694154 0.211849451142309 0.953659501617487 0.14973
0.14975 4.41152813946586 3.81517047718929 5.79118649327407 0.228094356054426 0.967788225468614 0.14974
0.14976 4.49785874445279 3.86027838388245 5.83343504808231 0.232833464866668 1.00549245409539 0.14975
0.14977 4.39801051317999 3.73196564018792 6.01778143152418 0.224571161350205 1.01424717128244 0.14976
0.14978 4.23666769292222 3.42165584148765 5.8672052192706 0.219441236514986 0.949229910166387 0.14977
0.14979 4.18250134830861 3.57433312416481 5.77301775979855 0.21770429443683 0.985271155762719 0.14978
0.1498 4.6199047135379 3.59742279443455 5.86553661228926 0.22808026289813 0.980634983930803 0.14979
0.14981 4.30214596392853 3.70776034069317 5.94320320061733 0.221391000134609 1.00570446569228 0.1498
0.14982 4.465262578679 3.4908149268624 6.05008222964409 0.222298761097708 1.01163448574462 0.14981
0.14983 4.15291921942744 3.60461158776479 6.13277179958123 0.219008549363229 1.0108743501912 0.14982
0.14984 4.4441604116749 3.49559655762085 6.20338899080081 0.224036369156021 1.02171774053312 0.14983
0.14985 4.73481501129649 3.8734186495222 5.97882165640564 0.2483874210329 1.0180627460219 0.14984
0.14986 4.66845747544681 3.49615668777074 5.97912881894564 0.229287252923426 0.99280988175518 0.14985
0.14987 4.49131552332518 3.19452143560754 5.78716311712403 0.214423080814856 0.96533410259746 0.14986
0.14988 4.50869794983473 3.32972613636942 5.74205914790233 0.213547602632215 0.985614349658143 0.14987
0.14989 4.59010733692132 3.63408918262622 5.98610797503487 0.232104213477602 1.00211856864125 0.14988
0.1499 4.74987650134024 3.63146320813379 5.93863299181712 0.236538093592725 0.978656678973965 0.14989
0.14991 4.64599262114869 4.04737987177591 5.76516056065937 0.250857353922945 0.964541151271615 0.1499
0.14992 4.09154589989314 3.74360351140504 5.81802221490251 0.226662269262775 0.966882512566717 0.14991
0.14993 4.29505570015903 3.6074327557896 5.79319201770789 0.221238744634389 0.97661016983077 0.14992
0.14994 4.43441958136281 3.35211718285318 5.99102440517165 0.21811165242292 0.994475600345711 0.14993
0.14995 4.68113068499738 3.89980537043862 6.21931307564741 0.245216708229281 1.03747016037381 0.14994
0.14996 4.13976764557511 3.64368993577032 6.01601821114865 0.219106452859486 0.99327537363887 0.14995
0.14997 4.22402233867577 3.35022629873362 5.75162857707958 0.213826464124884 0.956398279454282 0.14996
0.14998 3.94659392993787 3.6346609691536 5.57033329246442 0.210059234444464 0.946092199544787 0.14997
0.14999 4.36148303711571 3.67609595754624 5.58456171660019 0.22237465137137 0.932715052994374 0.14998
0.15 4.26463161464147 3.63180704417603 5.77254194607806 0.227213467714432 0.956067181778606 0.14999
0.15001 4.22567525879383 3.69745500250835 5.89537689480547 0.223323841853139 0.962039434888748 0.15
0.15002 3.83493107627212 3.28885884270053 5.83046927136945 0.204432473010056 0.942821164915808 0.15001
0.15003 4.31107925924266 3.48068618366539 5.70428727868518 0.213242409829255 0.936646103790754 0.15002
0.15004 4.1492131877384 3.51214913998171 5.75840028302063 0.216222013207399 0.969333630891337 0.15003
0.15005 4.56405780938107 3.33403569436795 5.7943363594213 0.22385334604681 0.968941936301881 0.15004
0.15006 4.21531155874092 3.21043902437162 6.02636370258916 0.19896302338629 0.989895882724361 0.15005
0.15007 4.32579040619643 3.20596704398208 5.80032416545092 0.212178287984597 0.960252685272204 0.15006
0.15008 4.2464987237814 3.14833230500321 5.8347551515302 0.209666085560861 0.971623483770525 0.15007
0.15009 4.32584337934699 3.51811486988082 5.84549923180706 0.211557124507226 0.986929957063362 0.15008
0.1501 4.22590237590378 3.59264118042095 5.5470872260237 0.221263191690675 0.926556109932233 0.15009
0.15011 4.34756891730545 3.48839864433398 5.54011078850849 0.224396379435148 0.936458145719066 0.1501
0.15012 4.43962925071708 3.6011782465555 5.65771901619026 0.227279936649819 0.953093250371793 0.15011
0.15013 4.48122064399634 3.10782971915521 5.68922613684567 0.215970311771451 0.940610252598529 0.15012
0.15014 4.55241573562515 3.30023186201023 5.80018758170521 0.212483628810546 0.968492592359316 0.15013
0.15015 4.52520958935512 3.40460023422155 5.79587141435188 0.221763586155421 0.96041037643026 0.15014
0.15016 4.25336077881773 3.59959663779518 5.76458267450247 0.226148950390215 0.957249676659405 0.15015
0.15017 4.06782122437596 3.29345253173324 5.6582127954936 0.20598841527853 0.946198155072277 0.15016
0.15018 3.96286884486279 3.19391328953948 5.93453740513531 0.202441415516412 0.961122790066003 0.15017
0.15019 4.06306763570719 3.5669951850416 6.01024782799084 0.202865449661226 1.0130582180806 0.15018
0.1502 4.23141181650263 3.6573840936402 5.92820546413262 0.225826761641822 0.973624500027898 0.15019
0.15021 4.28427445783096 3.85953741079726 5.65275676201968 0.230591166982345 0.950907457626958 0.1502
0.15022 4.23615197977132 3.61660582393476 5.71889697787401 0.21274751842292 0.977597035021562 0.15021
0.15023 4.1842890427909 3.0104344670716 5.84269072793113 0.208242933398492 0.959502461827403 0.15022
0.15024 4.02893768171227 3.23935297473757 5.68967028169353 0.200265241394342 0.945825811421203 0.15023
0.15025 4.01717091104981 3.4033441413611 6.03700556679922 0.205312244323834 0.987968388323376 0.15024
0.15026 4.10220658717505 3.41327843524419 5.76738445484107 0.21495997251321 0.951802157301189 0.15025
0.15027 4.29222602417033 4.05309686729183 5.71555813173107 0.233700925684951 0.972001359019834 0.15026
0.15028 4.25082269082929 3.8565486879923 5.90116334448796 0.222757620430761 0.993024986020281 0.15027
0.15029 4.23072745641382 3.63676295440793 5.76704124043582 0.225965380854935 0.985966046026569 0.15028
0.1503 4.29608589247329 3.45246722989035 5.85990359536536 0.2218344076169 0.988092692754422 0.15029
0.15031 3.93392176886609 3.27013984640156 5.80669889808507 0.201063788386375 0.975751513111363 0.1503
0.15032 4.27641635628782 2.90466083957139 5.82988136823109 0.208373350448525 0.956141543198735 0.15031
0.15033 4.50783094089784 3.48840349909825 5.87266096071799 0.224850486317371 0.977624141738163 0.15032
0.15034 4.39434409850334 3.5946207530572 5.79510907622438 0.227839183913329 0.95537290915394 0.15033
0.15035 4.50496180910997 3.87801200512161 5.74824799888635 0.236411012868519 0.976374608995202 0.15034
0.15036 4.41387657620967 3.81302802195986 5.71208679973152 0.234032772565368 0.94989673533449 0.15035
0.15037 4.08224914662606 3.30909874615524 5.7112950813198 0.20997051558587 0.949119441052354 0.15036
0.15038 3.86753690430178 3.29768206466318 5.94715229202495 0.193213463703716 0.981108638479336 0.15037
0.15039 4.24305173069233 3.40813013602276 5.86091778126118 0.2108037980043 0.997477772670607 0.15038
0.1504 4.5447680211396 3.39317216158851 5.89321792752939 0.223498391194668 0.980118774160928 0.15039
0.15041 4.54699907031527 4.03215414560511 5.78740243453832 0.242893585113562 0.990649303430832 0.1504
0.15042 4.56528070926741 3.71233227088206 5.43561060763109 0.23178344858593 0.956295652772528 0.15041
0.15043 4.31892473556118 3.56197292568822 5.62416244197093 0.22267532851136 0.975778441921578 0.15042
0.15044 3.93298787670677 3.36653634787316 5.82020650689275 0.198330608018504 0.966609388575778 0.15043
0.15045 3.66602914868772 3.1197893401243 5.83947357116846 0.195552961780631 0.933311507163249 0.15044
0.15046 4.06526443230704 3.42571646701041 5.91475517551022 0.209237576596615 0.981112491743578 0.15045
0.15047 4.31338365265915 3.60281063066635 5.7556385905265 0.221653157344202 0.97176907857327 0.15046
0.15048 3.99998048268433 3.37839131009594 5.79965488931907 0.208114162362214 0.955674760667516 0.15047
0.15049 4.08591098528369 3.3121790718019 5.88209820208539 0.21288059943812 0.9689700848453 0.15048
0.1505 4.07634311149451 3.08519466112914 5.88943255414397 0.20293677319704 0.971781118803655 0.15049
0.15051 4.10096365769262 3.41444420838818 5.94085511767031 0.211604020343121 0.984876906811531 0.1505
0.15052 4.18894803460808 3.87719878786866 5.73292906153347 0.226701007515666 0.94952459483803 0.15051
0.15053 3.74480880103123 3.70182086541752 5.80113057074374 0.20012293277886 0.954441801196616 0.15052
0.15054 4.16629700730752 3.66389862826414 5.79928588884918 0.217293982465578 0.978281038047221 0.15053
0.15055 4.3988343519019 3.76651428893994 5.7128995191938 0.235086807909317 0.953212975371222 0.15054
0.15056 4.41986757856299 3.39262525283717 5.73282363592048 0.222712518007097 0.962994429869875 0.15055
0.15057 3.96936201452647 3.28680824456638 5.76946860405933 0.211953446367261 0.959103561410708 0.15056
0.15058 4.17491374217603 3.03138967705772 5.80787387006456 0.19823977034538 0.978744764977166 0.15057
0.15059 4.18130226405855 3.64143793995041 5.76751117450963 0.217257725301952 0.973025615014546 0.15058
0.1506 4.45178757779596 3.35933274858622 5.88072329100422 0.212937723223764 0.966463218635281 0.15059
0.15061 4.58795817566066 3.52318102661192 5.82497296528982 0.224647122843669 0.982620515419286 0.1506
0.15062 4.38025691886471 3.63549528337292 5.75665663005498 0.232201839604352 0.961663790171446 0.15061
0.15063 4.50818638660416 3.68760018267809 5.56338618911878 0.23045686022865 0.947061360091139 0.15062
0.15064 4.35687283433427 3.1969446657656 5.85045755316238 0.206873152359746 0.97288352936887 0.15063
0.15065 4.16014829373129 3.23609188808851 5.73487731089427 0.209700512698973 0.944979795083676 0.15064
0.15066 4.31218424781885 3.38178346877207 5.69017085006497 0.214290149630066 0.97933149102944 0.15065
0.15067 4.4275984304878 3.71271449676234 5.94721361015735 0.233662217551291 1.01594035517724 0.15066
0.15068 4.20958740672332 3.69585193769132 6.07442527412287 0.226197391374321 0.971424319529789 0.15067
0.15069 4.28882757955329 3.74265480449639 5.92827343406 0.232585039054479 0.975263885667337 0.15068
0.1507 4.26588591150008 3.80558093895326 5.99218257984327 0.223563094002033 1.00441033929171 0.15069
0.15071 3.96137810164477 3.81896799345781 5.99248354753872 0.220101977752884 0.978022457794826 0.1507
0.15072 4.24651368389376 3.83174626783293 5.89459480371911 0.23137987585226 0.989832782014306 0.15071
0.15073 4.1078121136224 3.55524940159774 5.74008743540168 0.207552441428713 0.973013399951672 0.15072
0.15074 4.1114181991618 3.4110048550187 5.56833228621946 0.221148997389631 0.907217369674063 0.15073
0.15075 4.3826979365665 3.58294141578678 5.75797114370673 0.223335238375759 0.970628247862699 0.15074
0.15076 4.45998106196365 3.73599379029597 5.67077240768291 0.225541482578422 0.964946854186394 0.15075
0.15077 4.13320780610002 3.75753923319979 5.65731005901183 0.222163184076282 0.94216119147898 0.15076
0.15078 4.36030301722911 3.55448077678089 5.60222488291178 0.222692090498315 0.96126120951551 0.15077
0.15079 4.16096982765412 3.45663560830709 5.62800464712081 0.208708774925131 0.942291758844552 0.15078
0.1508 4.19063750332397 3.24147130498788 5.91912110121357 0.205467337871765 0.963874442081841 0.15079
0.15081 4.38745540319041 3.42719122498841 5.72547886086073 0.212277815050523 0.985283174689247 0.1508
0.15082 4.19242166991748 3.30313049225559 5.93864842887638 0.208838207304602 0.98157043393984 0.15081
0.15083 3.95189603372736 3.33592007199536 5.97223826942358 0.204275072734075 0.980794383577354 0.15082
0.15084 4.31816131168126 3.52010857956302 5.88895870324773 0.216885177854399 1.01043239865922 0.15083
0.15085 4.13015513912723 3.45868118045791 5.82975613580326 0.212081284769836 0.961277406142661 0.15084
0.15086 4.0793345001335 3.38030695489485 5.95163697550289 0.212675325093324 0.962790347330798 0.15085
0.15087 4.32714677072272 3.42866879082773 5.90241911516473 0.219697115034552 0.977911181842182 0.15086
0.15088 4.19565422741696 3.34954562449176 5.81937723466256 0.214030699239223 0.980822346136595 0.15087
0.15089 4.42842443948587 3.39635572362287 5.71163809234704 0.223676686834984 0.950271166646696 0.15088
0.1509 4.26345408139524 3.6835299076108 5.66158017176947 0.21452651011249 0.9744079034704 0.15089
0.15091 4.36956853579588 3.8795884169145 5.77554314213978 0.228198265404124 0.954761305196913 0.1509
0.15092 4.22869299487032 3.51420283282038 5.68531706090929 0.217298809509929 0.961195274545486 0.15091
0.15093 4.38222131915008 3.49006142515769 5.78601292857504 0.220960241536814 0.984556952722472 0.15092
0.15094 4.15185354531805 3.36364825052576 5.98855815723475 0.218215648580864 0.980650696913823 0.15093
0.15095 4.35017551275595 3.43615983110661 6.05728815967377 0.213354780260972 1.00242274989282 0.15094
0.15096 4.07883440609332 3.34192781562828 5.92717618087981 0.20775647768116 0.941566173432595 0.15095
0.15097 4.4341554959724 3.40785291783164 5.74332940188649 0.217190407149595 0.967244963398695 0.15096
0.15098 4.61105590688587 3.92935319854585 5.6582258472794 0.240097171936505 0.952881506264172 0.15097
0.15099 4.44590710152549 3.59540112446232 5.86503575931375 0.220752643052633 0.969029263214257 0.15098
0.151 4.3949951774652 3.6211651605293 5.5806442040299 0.220718604431797 0.956488253522146 0.15099
0.15101 4.10762913891457 3.56527978618168 5.68180113363505 0.21456893943403 0.957602233991733 0.151
0.15102 4.40504310434735 3.86360243390618 5.67480011311661 0.236304165545824 0.982442579691814 0.15101
0.15103 4.32695239065671 3.92341417945854 5.73141114784502 0.229980348348201 0.978813267944805 0.15102
0.15104 4.50960392601694 3.49582770920312 5.89473664501072 0.22669424442192 0.961371486394165 0.15103
0.15105 4.15213977646926 3.46883062926718 6.27139590718359 0.214155691503703 1.02770133617202 0.15104
0.15106 4.01757411260132 3.41605003685971 6.32063432592834 0.201653558215545 1.04222942120082 0.15105
0.15107 4.58382936322963 3.40073814753366 6.05039275443425 0.228177845675436 1.0042003796983 0.15106
0.15108 4.17392117019836 3.36592344067108 5.9120534775246 0.205807913701941 0.96925141444837 0.15107
0.15109 4.13445980313044 3.35988083600545 5.86207419486356 0.211712553499404 0.95562329612279 0.15108
0.1511 4.33262909537002 3.53720969175068 5.68570094692429 0.218787481566835 0.967991113051955 0.15109
0.15111 4.35122534801359 3.40200610454944 5.63322464656054 0.215869589507036 0.964789753736853 0.1511
0.15112 4.36927544706272 3.81826446674945 5.76083148608921 0.237980331364064 0.96963986195474 0.15111
0.15113 4.08376080438007 3.56515171017462 5.67112976728415 0.220040593876576 0.960275742772193 0.15112
0.15114 4.03864462377961 3.44802586392368 5.85760141261968 0.206406484126333 0.98131403541671 0.15113
0.15115 4.41510566208485 3.47102754682676 5.95955702655548 0.219129806844842 0.992713122341571 0.15114
0.15116 4.41677312480424 3.36593284846249 5.98060536315214 0.221216526048363 0.965752916969586 0.15115
0.15117 4.19015759273033 3.42098301326641 5.92374053089021 0.210837581540924 0.987602773439028 0.15116
0.15118 4.44670517753068 3.60671346384826 5.95954027583953 0.221043341482832 0.998308188291375 0.15117
0.15119 4.24556300689602 3.27550311868115 5.72663426050755 0.20744278568665 0.958911061489754 0.15118
0.1512 4.24656359851123 3.42540528814086 5.82174247712214 0.214608216493902 0.958752400867761 0.15119
0.15121 4.06762704424857 3.57936571077635 5.66504655635799 0.217542972546464 0.939700926399712 0.1512
0.15122 4.55257376044524 3.97108921895509 5.68840984114982 0.248210672641211 0.948077263826299 0.15121
0.15123 4.73095736683623 4.04768305562425 5.93068837588689 0.244435673508325 1.01344232603698 0.15122
0.15124 4.44572479146278 3.53505022548122 5.91704282134313 0.221046437250692 0.995709288727086 0.15123
0.15125 4.3409995412533 3.63565995701028 5.72916777679115 0.230121322762962 0.943597826996858 0.15124
0.15126 4.0654090313746 3.43407240711886 5.75036643404087 0.20569517043225 0.964382284720439 0.15125
0.15127 4.11416093262197 3.39343813073975 5.71297495224711 0.21322582087287 0.949574204718716 0.15126
0.15128 4.30659299998373 3.66832492395309 6.01406353899587 0.22617649504177 0.993681702508741 0.15127
0.15129 4.22501983927233 3.29877433069674 6.01393961376023 0.214139600664642 0.968763389290399 0.15128
0.1513 4.173684265501 3.58125607459295 6.01219106663807 0.21788239557047 0.998778381205648 0.15129
0.15131 4.18281672357054 3.81884733930266 5.90226239981219 0.228473921271827 0.965051505267677 0.1513
0.15132 4.44605049530534 3.7773726604116 5.8915279470857 0.224506396667348 1.00550812529658 0.15131
0.15133 4.10150196760617 3.59410631296325 5.90916519772778 0.214092719869628 0.953299081673684 0.15132
0.15134 4.1425754010383 3.55602057806471 5.76726662256606 0.211661261990937 0.970275378866399 0.15133
0.15135 4.32855605926444 3.60868735840225 5.87047316394247 0.2250891490947 0.971580226191997 0.15134
0.15136 4.34889342566368 3.32868491177513 5.8282554810788 0.219955366229752 0.949049942973464 0.15135
0.15137 4.38120149169557 3.82863925381576 5.61842515490064 0.226562129170613 0.968067003420056 0.15136
0.15138 4.1349482634828 3.46461590922969 5.77409771672257 0.214896698287019 0.974531640839115 0.15137
0.15139 4.12385811593024 3.80289034630395 6.05881075820813 0.227136106421913 0.996964816672977 0.15138
0.1514 4.09284262522928 3.41189906790445 6.25217415237325 0.210264705756198 1.02788146132492 0.15139
0.15141 4.20165417477562 3.22590838556837 5.97254561028086 0.206910864976167 0.977935981783326 0.1514
0.15142 3.92985299054972 3.48162671947564 5.89750711189101 0.219920848978096 0.959195352527 0.15141
0.15143 4.00768138264522 3.52897021964856 5.77876413971968 0.206293133654089 0.959177761320444 0.15142
0.15144 4.49856235730459 3.70045137821559 5.91788396570591 0.232720115834593 0.988515212615483 0.15143
0.15145 4.52467490932107 4.10845466542425 5.94609514856747 0.242123350134871 1.02043397857613 0.15144
0.15146 4.22736035347692 4.15447573195727 5.98513739586045 0.234666645106145 0.988426707171476 0.15145
0.15147 4.15237908329861 3.32580703589065 5.91955439401976 0.208480420618642 0.972537597730723 0.15146
0.15148 4.08547166470037 3.15910337962762 5.86184546212843 0.201664365304534 0.970531783525408 0.15147
0.15149 4.27710640836223 3.41244848479689 5.89859598075581 0.210600071157978 1.00555475153468 0.15148
0.1515 4.56112284354817 3.82908501265669 5.87384821961703 0.24112074129291 0.988159161208296 0.15149
0.15151 4.45057387943988 3.68544976283686 6.03346892596121 0.218840083852548 1.04032405473768 0.1515
0.15152 4.39987444107794 3.74814814548557 5.93240634615098 0.231540977814055 0.967770386422114 0.15151
0.15153 3.99395103437237 3.55586441453285 5.83133173057404 0.218798550931524 0.947458103005599 0.15152
0.15154 4.41302280875584 3.690643974391 5.7468857240099 0.224195950837195 0.984052108488102 0.15153
0.15155 4.34800524219454 3.41917805661387 5.79656445144582 0.216881798275157 0.954322597058367 0.15154
0.15156 4.60848457815714 3.84767934289563 5.70444009235177 0.236373411522049 0.968831991727365 0.15155
0.15157 4.25615855953575 3.5615794125426 5.79121477263891 0.219840448927946 0.970287093060333 0.15156
0.15158 4.28808911596509 3.07269228273562 5.9748714191087 0.205062827862383 1.00333983444951 0.15157
0.15159 3.94248233292323 3.40939527994804 5.9551979687337 0.199221978132864 0.97311711540807 0.15158
0.1516 4.12003851961973 3.78872154734987 6.19106454122934 0.225754226597257 1.01018754670551 0.15159
0.15161 4.41597765021124 3.65553577943275 6.17742636736808 0.23530785267071 0.993541795283604 0.1516
0.15162 4.22406054054635 3.71252617043301 5.99464348272299 0.22303600980948 1.00183649909837 0.15161
0.15163 4.22426992132711 3.4818283053394 5.83038433408543 0.213971601865356 0.977986592719589 0.15162
0.15164 4.18690852714685 3.93346196348312 5.94743519579981 0.224687358063737 1.00812281584637 0.15163
0.15165 4.1121996900568 3.78556100858408 5.83831377424158 0.220190215187097 0.980437062587713 0.15164
0.15166 4.43761296845365 3.33495579529042 5.87690767213787 0.214206336419414 0.954473104429046 0.15165
0.15167 4.33320056579604 3.60215218860826 5.88589801087282 0.218666290836042 0.97038229820564 0.15166
0.15168 4.01619059823532 3.51682152225916 5.81803579428894 0.205834297030099 0.946955391201123 0.15167
0.15169 4.06688732639092 3.50826258798569 5.81549316568325 0.211087618416152 0.979161611988292 0.15168
0.1517 4.18879223689423 3.76485725379198 5.86586476365386 0.224906837314233 0.978632457035492 0.15169
0.15171 4.25465218420019 3.6671372536271 6.03592795285518 0.222406622326057 0.999872249239121 0.1517
0.15172 4.28581657534481 3.64979717255183 6.26100367628516 0.21874974236662 1.04176878324792 0.15171
0.15173 4.53234758902223 3.60336656187346 6.14381610196618 0.228666716749607 1.01362084510834 0.15172
0.15174 4.6112771889881 3.50013787927633 5.77722347867016 0.229305135852024 0.970127576683398 0.15173
0.15175 4.54777070385253 3.81240951109859 5.75408945250229 0.232884189628511 0.959875191289605 0.15174
0.15176 4.69925229442622 3.68285555404744 5.60724929543768 0.243146711312536 0.966716285301972 0.15175
0.15177 4.47526810857173 3.6022048994469 5.76351369666338 0.226782129337902 0.984992266057305 0.15176
0.15178 4.39642083299034 3.64182076506264 5.96417522707923 0.225292815304513 1.02585669713094 0.15177
0.15179 4.39589485482991 3.55046609766275 5.92833950819056 0.229674890413844 0.983597438258875 0.15178
0.1518 4.31877239613648 3.35668827835956 5.76593454075009 0.209353041347664 0.990464753022238 0.15179
0.15181 4.47843577825767 3.30548420449032 5.92533885497533 0.218826667135704 0.980319321969648 0.1518
0.15182 4.55585482302936 3.45694498957835 5.82967538871162 0.225422706841481 0.994680281200183 0.15181
0.15183 4.60518669872068 3.59304957131645 6.02709371165521 0.239786955593327 1.00142016448711 0.15182
0.15184 4.40325456451809 3.69051665192509 5.98792680381303 0.223939809688438 1.02876683794239 0.15183
0.15185 4.3887831459798 3.74854420580593 6.07740165686783 0.231359563502121 1.00613332948397 0.15184
0.15186 4.36652357037572 3.75068626181203 5.78973604224194 0.224210271431022 0.976399769400607 0.15185
0.15187 4.22375508846003 3.45470281800974 5.80729402148338 0.210482033882353 0.971042751650028 0.15186
0.15188 4.32739281994529 4.01457683348753 5.72780844134935 0.232814965188791 0.99988264720841 0.15187
0.15189 4.44115318198047 3.81455447460317 5.83185651089405 0.233555742060959 1.00062115544268 0.15188
0.1519 4.16041265528015 3.59449646960962 5.86544953496187 0.212316942982672 1.01305501277479 0.15189
0.15191 4.28518368437577 3.28127158582452 6.10533181992568 0.210837741228026 1.02774567754997 0.1519
0.15192 4.09176086903718 3.13802496561281 6.13798938504492 0.204652275211033 0.990200329277902 0.15191
0.15193 4.4712331604701 3.73601383734667 5.79717446062021 0.226919831623176 0.998201595486517 0.15192
0.15194 4.3728302311363 3.69111012400921 5.94419359765216 0.232150249033177 0.992331039876678 0.15193
0.15195 4.07527869332062 3.66991332241134 5.98793221653782 0.217899395533256 0.979680361305637 0.15194
0.15196 4.27549695882341 3.57321811086765 5.82357313325648 0.215818728732891 0.967342963315024 0.15195
0.15197 4.55668425498612 3.69769778794013 5.8407984364233 0.22935553721795 0.989804163159201 0.15196
0.15198 4.69237629627371 3.76680365897552 5.57235421432529 0.238801940821495 0.953154602630777 0.15197
0.15199 4.71039144252199 3.50409093643657 5.80315680073169 0.235634344235579 0.976798384389288 0.15198
0.152 4.58025786176844 3.6718871056933 6.09452757425937 0.220372279422749 1.04419479502735 0.15199
0.15201 4.71579827879159 3.80590942940979 5.94836792624146 0.243462947092318 1.00864483095497 0.152
0.15202 4.28752123944669 3.4811227826138 5.96003071798928 0.210920410929942 0.979389867961539 0.15201
0.15203 4.35479224590216 3.67041322788549 6.10197881916804 0.225811563660162 1.00051291195082 0.15202
0.15204 4.3000525589499 3.70653836642715 5.97451501163408 0.222125968452208 1.00545764387794 0.15203
0.15205 4.34942782314096 3.59022747572254 6.06247209313247 0.215632128970747 0.99570801182113 0.15204
0.15206 4.7193205198765 3.79654256323278 5.85674587513733 0.24071872162575 0.986060624858884 0.15205
0.15207 4.56939077466905 3.47905512853958 5.80409665118297 0.218509680512376 1.00383235033748 0.15206
0.15208 4.43740719388546 3.43854951993852 5.74748083755034 0.229139775855973 0.966957569363082 0.15207
0.15209 4.4416230024651 3.28010391845233 5.95604876698965 0.216728008767893 1.00433118231203 0.15208
0.1521 4.35951300959834 3.46600174082835 5.99173425791266 0.230323633962597 0.97595447635738 0.15209
0.15211 4.37303937158787 3.6550900695054 5.9311692804134 0.231370259326944 1.00748330929792 0.1521
0.15212 4.18157816220045 3.9047994651627 5.96679003181183 0.219417972789514 1.01920646004884 0.15211
0.15213 3.90636779788305 3.67635966007014 5.99535657780472 0.211529747299693 0.964178139662058 0.15212
0.15214 4.12635525271298 3.58102412988747 5.91059598231842 0.217184415805294 0.977174333861849 0.15213
0.15215 4.16896338738506 3.59160044251426 6.0358010963562 0.21463100497597 0.998647038575952 0.15214
0.15216 4.22636544031404 3.83684324532226 6.1747625883264 0.230130847947074 1.01275659506497 0.15215
0.15217 4.19765929759574 3.88538796867445 6.06813024621402 0.22983542081617 0.988196310221041 0.15216
0.15218 4.45327738821821 3.688261899136 6.01397383232963 0.231536156098296 0.983841001871021 0.15217
0.15219 4.0824485581574 3.88719996561812 5.87848366357978 0.220680022839832 0.993152104372044 0.15218
0.1522 4.14048382151551 3.50454832433936 5.8537947234532 0.21564053518587 0.984000827238872 0.15219
0.15221 4.26593235376246 3.85976603703419 5.8985169705321 0.230639286003587 0.990491165694098 0.1522
0.15222 4.28004210632618 3.94808981966451 5.86834660766541 0.236642012372722 0.981333965817043 0.15221
0.15223 4.49925790631324 3.71622746856172 5.82388341946234 0.229887861514977 0.964898214381583 0.15222
0.15224 4.30877884973753 3.55007117210445 5.91013797982704 0.232230307859867 0.996239189115053 0.15223
0.15225 4.22311315333647 3.65711401807343 5.98427887460538 0.214099820183935 0.999521184402063 0.15224
0.15226 4.34711244587166 3.77836291506082 5.94929770895348 0.228094973482285 1.00219329536845 0.15225
0.15227 4.47348977544608 3.70827792777831 6.17634958469265 0.232478933185152 1.01239648535868 0.15226
0.15228 4.51452732577368 3.36133488414511 6.24160247697576 0.220658698361708 1.03460588731114 0.15227
0.15229 4.73628407754296 3.64031202088066 6.10999308041536 0.239801282109658 1.0219137757862 0.15228
0.1523 4.69823989053869 3.6116150279028 5.73223287855867 0.235606326621491 0.944343811940132 0.15229
0.15231 4.57250259795926 3.80754864461117 5.62317596268449 0.243812595853189 0.980969757199756 0.1523
0.15232 4.53311996302467 3.59754387955438 5.84284565397921 0.224034317576084 0.966181750570186 0.15231
0.15233 4.33499960502565 3.77759928591012 5.73562369967427 0.224905444658643 0.972642202949029 0.15232
0.15234 4.39851646209179 3.87003938578173 5.69183276638849 0.232558741072236 0.957222656857686 0.15233
0.15235 4.42752079703092 3.6085984332175 5.71580735642642 0.222263772645869 0.961563272116002 0.15234
0.15236 4.21643760246941 3.55938039519223 5.73043447875152 0.222184848159253 0.970339305362672 0.15235
0.15237 4.24246439267623 3.4320870280985 6.21254841512899 0.210328681512388 1.03184331108683 0.15236
0.15238 4.3798789243341 3.77314977629879 6.27264300114958 0.227674642081481 1.04919543066188 0.15237
0.15239 4.5600601964596 3.55313372084278 6.41264085842449 0.224692496837629 1.0523110193669 0.15238
0.1524 4.03319539722077 3.52981312280219 6.31204904905387 0.216042169857024 1.02299796082797 0.15239
0.15241 4.29401304204004 3.74782908618869 5.9220825824378 0.226041619748593 0.999274075486186 0.1524
0.15242 4.3349542484201 3.93256205872733 6.01070838026282 0.236150328055849 0.994528590517318 0.15241
0.15243 4.48197372951269 3.72428051278073 5.91656458004738 0.219641310071314 0.987736754366194 0.15242
0.15244 4.30657258148929 4.08707512155761 6.03917697114584 0.23238098011045 1.02369087143311 0.15243
0.15245 4.31825967886446 3.63197840289289 5.95321534078375 0.220030410034067 0.990369946350741 0.15244
0.15246 4.37067604456343 3.51231185895418 5.80545514412519 0.21471759557283 0.981702354115395 0.15245
0.15247 4.16011763170724 3.23216769954852 5.84977322923239 0.210141702519628 0.955124299122655 0.15246
0.15248 4.27788227785421 3.68404345825415 5.67403076843685 0.224833980189344 0.953944962849527 0.15247
0.15249 4.43053579684685 3.69604379047195 5.86120954049929 0.219698706549456 1.01733926515638 0.15248
0.1525 4.59848981048999 4.02975241943348 6.03058554020278 0.243063932096591 1.0101578395133 0.15249
0.15251 4.49049053615271 4.02239472144998 6.1326784178863 0.239721088302654 1.02450554902325 0.1525
0.15252 4.26963945659545 3.35628317822637 6.10505219203166 0.212118084252253 1.00432294100161 0.15251
0.15253 4.37479920013743 3.55110549108195 5.9142622681036 0.210420697666332 0.995693409533718 0.15252
0.15254 4.59290462569413 3.87624091379356 6.23609494423839 0.236143225607895 1.04011957999496 0.15253
0.15255 4.45901233747212 3.79463313965107 6.2211656120848 0.232991894946341 1.04383229286256 0.15254
0.15256 4.59537199157325 3.79378635889353 5.94676493804801 0.233748313206527 1.00603086678393 0.15255
0.15257 4.50427323611335 3.4876070318453 6.01204215635872 0.218741998485007 1.02121215898266 0.15256
0.15258 4.65985325021168 3.40795952952655 5.82759144892209 0.235257017027275 0.970846216188215 0.15257
0.15259 4.73263482482943 3.64720329028927 5.81545026215638 0.232727605615568 0.981802303855494 0.15258
0.1526 4.8218279630743 3.60156908269117 5.70629055982513 0.24016397339608 0.971265435653351 0.15259
0.15261 4.70478956260716 3.56277047776182 5.92646045270814 0.230996152613045 0.988321723050251 0.1526
0.15262 4.22797046549379 3.33762845568866 5.89686192622181 0.214853948993673 0.956214313870217 0.15261
0.15263 4.0144487334061 3.34418421701165 5.96803125801067 0.204966794470806 0.986057346721927 0.15262
0.15264 4.22883225877784 3.21854579537969 6.06035351092732 0.20489013803326 0.985818261708685 0.15263
0.15265 4.39339331678883 3.51286927247743 6.03266264623551 0.212428480539687 1.01504826240002 0.15264
0.15266 4.42753306017124 3.73227497170992 6.12223017191211 0.230342019755922 1.03342842003435 0.15265
0.15267 4.53877182633218 3.6982642716952 5.99896652540936 0.233611008392706 1.01096100302878 0.15266
0.15268 4.5315868222402 3.66794837748815 5.94175771807009 0.228064431765813 0.984347090226539 0.15267
0.15269 4.17388741189151 3.58595130034596 5.79851958371874 0.217895855513524 0.994210876683046 0.15268
0.1527 4.23800308598582 3.92905798115999 5.85814783478131 0.230561151172302 0.977129420875342 0.15269
0.15271 4.19558263299465 3.63071518343667 5.89961678025175 0.213311664840068 0.988214873283489 0.1527
0.15272 4.32774943338403 3.47154412192224 5.85292173555679 0.215858678471008 0.982347247481232 0.15271
0.15273 4.26141873615756 3.78151720204427 6.00619730115978 0.22775541507611 0.992145464357462 0.15272
0.15274 4.31794278993701 3.62973100977752 6.08099677005372 0.224229951412144 0.995012419161649 0.15273
0.15275 4.33151798038035 3.75393054177502 5.96694103189951 0.226286941836357 0.99069727437612 0.15274
0.15276 4.44811763384707 3.88964895884142 6.0637282657154 0.238696898520072 1.00129359134752 0.15275
0.15277 4.10875576178999 3.48201833609241 5.90807562031094 0.220135431081099 0.999895579822159 0.15276
0.15278 4.27032210184867 3.27666027843615 6.08889180235176 0.217153161365974 1.01455665476818 0.15277
0.15279 4.45559106251673 3.56640692340811 6.01730038329324 0.221151381968646 1.00445883443335 0.15278
0.1528 4.36445059726646 3.8536549478745 6.00264685990332 0.229019176003152 1.00625875135551 0.15279
0.15281 4.73286567289124 3.92704994120767 6.24067744621679 0.234162545559236 1.04323620445659 0.1528
0.15282 4.85323526827348 3.71548756757787 6.01975716951194 0.234600372841332 1.02098073839689 0.15281
0.15283 4.68638323610625 3.83594963817876 5.97032409700903 0.23659475536211 1.00600780805864 0.15282
0.15284 4.65772158818375 3.68677641844342 5.99656344670576 0.23542060373226 1.00949724618407 0.15283
0.15285 4.51087355182318 3.60952897760444 6.06684435502213 0.227016418214103 1.01006828488649 0.15284
0.15286 4.29786965444907 3.64646211333467 5.754078599742 0.224253685812432 0.967456648889196 0.15285
0.15287 4.48327557050788 3.54842845214168 5.95527307595252 0.232432964079215 0.991143817093704 0.15286
0.15288 4.45756556205095 3.59885635018852 5.76947483154383 0.226345166754309 0.966143304104703 0.15287
0.15289 4.59187765383387 3.61918253362685 5.82115517214236 0.234828963519935 0.975944393230739 0.15288
0.1529 4.54454030248697 3.70768547887087 5.80007932606852 0.232309163144131 0.988603270301161 0.15289
0.15291 4.57971099715352 3.9320062537893 6.05345317599382 0.239140079037888 1.01835002583665 0.1529
0.15292 4.72341772558099 4.11467267241638 6.00968180474509 0.25624970987772 1.02175921362847 0.15291
0.15293 4.10662593862282 3.57115836405806 6.22186713346369 0.215675470247796 1.02865340392352 0.15292
0.15294 3.98461987370416 3.32718096184921 6.29454368591859 0.208289688172839 1.00230603380177 0.15293
0.15295 3.88733240327093 3.58169114263843 6.16484631849756 0.208078662231342 0.988373664827526 0.15294
0.15296 4.57385565300765 3.71999913839981 6.07389639062768 0.227823757995698 1.0210978065155 0.15295
0.15297 4.39398753090611 3.53058451071716 6.05365209146939 0.220093121678638 1.0022605170732 0.15296
0.15298 4.53486863113682 3.91430821975028 5.88851004059516 0.244521971785263 0.962481636051782 0.15297
0.15299 4.59217437744648 3.793538282149 5.83845544594969 0.228929830929853 1.0055547900042 0.15298
0.153 3.84300035822393 3.61192768923156 5.6831962183418 0.201970445122799 0.92481773162833 0.15299
0.15301 3.7902139218406 3.53109887022837 5.52934928033072 0.203823792734565 0.925559217717991 0.153
0.15302 3.68279107990826 3.41245867629526 5.60759927640446 0.199692603892884 0.892835108678535 0.15301
0.15303 3.91210076890893 3.58053697261671 5.55126782989539 0.208397185182318 0.927761072745409 0.15302
0.15304 4.15078043357751 3.50972521149727 5.77443586617431 0.207877144867113 0.968399068640882 0.15303
0.15305 4.0821617563045 3.29722047777285 6.07062796527123 0.202877723781379 0.992320202107197 0.15304
0.15306 4.10947618146781 3.45726082075381 6.12199784733682 0.222510577254432 1.00467148355267 0.15305
0.15307 4.09721233584466 3.53064126898109 5.77986286800914 0.215639193355925 0.964369813197601 0.15306
0.15308 4.12233054051009 3.40270236938616 5.91693652939998 0.207418746953034 0.965666794416205 0.15307
0.15309 3.93506861401192 3.1945448534802 5.73518017197688 0.205613322225486 0.947508454268547 0.15308
0.1531 3.98121084839099 3.4007591493012 5.64827310187768 0.204367733820026 0.94470444271149 0.15309
0.15311 4.10279613688531 3.67629135320802 5.66445432299748 0.222045266864419 0.927918652185007 0.1531
0.15312 4.00527839764346 3.67449285669623 5.50475420509545 0.211287824972067 0.919238256000684 0.15311
0.15313 4.15391106212107 3.77120948592548 5.64631812879118 0.219701064087945 0.946419467376301 0.15312
0.15314 4.17195569290109 3.72440942352437 5.53125230680635 0.222123532441143 0.941203914751128 0.15313
0.15315 4.28444336336546 3.26948354099867 5.80500675064243 0.212061605167255 0.946270514208609 0.15314
0.15316 3.87938813420638 3.19002977787488 5.83776635595346 0.199983564872193 0.940807718188398 0.15315
0.15317 3.67643140516067 2.92656731266003 5.89892397883107 0.184787631259896 0.976050450692419 0.15316
0.15318 4.13129583543952 3.14800076125421 5.97927052297018 0.199760781786137 0.974360525417597 0.15317
0.15319 4.25961019080555 3.48295464629801 5.80338214505411 0.217653134877004 0.976270798345668 0.15318
0.1532 4.29455718837944 3.49997213169215 5.71990001603483 0.212362793036871 0.968688157922201 0.15319
0.15321 3.9811308691024 3.55642454426319 5.78821080073671 0.205886942269882 0.957158633741899 0.1532
0.15322 3.89854967602918 3.6912124345572 5.63148613645292 0.213169591776897 0.944257606690679 0.15321
0.15323 3.92122475432647 3.58133101956023 5.69589917295327 0.20808996606162 0.94973559821945 0.15322
0.15324 4.23255485029908 3.62980087326937 5.64848760799378 0.223947566049182 0.954191650284898 0.15323
0.15325 4.09972812342105 3.64282403116658 5.86494680858097 0.215384539491857 0.964112752267292 0.15324
0.15326 4.07406630999265 3.55855088310678 5.76462024541972 0.211330357745107 0.955352232462264 0.15325
0.15327 3.99964620817524 3.20606982901207 5.67097139339676 0.197508393024322 0.934669212499368 0.15326
0.15328 4.1113975621572 3.16203532118308 5.7975418789371 0.207350939806388 0.945198947098929 0.15327
0.15329 3.86476559296887 3.57004779947892 5.79933505019907 0.207692288981821 0.964197701404506 0.15328
0.1533 4.03077500705755 3.63273339530992 5.64873828569276 0.20775265666533 0.964004359817059 0.15329
0.15331 3.78679734873772 3.54077130722654 5.66770504075578 0.208911775017379 0.931297959833194 0.1533
0.15332 4.0081148672075 3.40279262611111 5.71432101525844 0.205846765228053 0.95112643182551 0.15331
0.15333 4.08786694391156 3.24028737827616 5.72262235883889 0.211153026499946 0.929661277749182 0.15332
0.15334 4.08577921849726 3.47982624455068 5.83741144984443 0.223098101507289 0.968174341044083 0.15333
0.15335 4.20115221206719 2.99853757070152 5.9047193838576 0.195554368550448 0.981673276985961 0.15334
0.15336 4.09041107519906 3.56933747468138 5.85502554266455 0.222946364352567 0.958389157209231 0.15335
0.15337 4.22212545625388 3.23376568428505 5.92793563435616 0.21381942619846 0.953470255012331 0.15336
0.15338 4.31308575221189 3.1396576181909 5.71289951084213 0.202246758075892 0.97753363776778 0.15337
0.15339 4.43012753076047 3.25505087796017 5.66459283920824 0.21740345813861 0.921619113100467 0.15338
0.1534 4.47135151933824 3.17716304866607 5.44266412426308 0.206099309741012 0.950130453854848 0.15339
0.15341 4.31654078795887 3.45168835056658 5.6585622158312 0.219850051542668 0.961151003434176 0.1534
0.15342 4.12930943927749 3.29714195381577 5.60399197806556 0.212256566794652 0.900459972800011 0.15341
0.15343 4.20139231874347 3.39732811733817 5.64002740233246 0.218621963861602 0.955137305604545 0.15342
0.15344 4.36305853919955 3.38987888637585 5.68834935683667 0.216354173711267 0.943560747986215 0.15343
0.15345 4.45228047190084 3.58468283048921 5.70257573063458 0.225641202592371 0.958996745943283 0.15344
0.15346 4.00499142577196 3.40136147010835 5.84156709733356 0.200218212089224 0.957769815839326 0.15345
0.15347 3.88583550726521 2.78814090830896 5.84280436450154 0.184283032656058 0.94107022997674 0.15346
0.15348 4.06140409538164 2.99450676597677 5.91509260969181 0.19646020851435 0.966606963856438 0.15347
0.15349 4.28829317470847 3.55788851650279 5.90894924572951 0.2228134635483 0.973052307536307 0.15348
0.1535 4.30878657591726 3.74199767118333 5.70193690846706 0.230915674644242 0.932508380226604 0.15349
0.15351 3.98970549004095 3.90304302167249 5.73171538788033 0.217427247009495 0.954389632462227 0.1535
0.15352 3.87078106806676 3.58341610752004 5.62765085377488 0.202436343715594 0.928980483425137 0.15351
0.15353 4.10084375776531 3.26833435536189 5.75201664781626 0.210422464199574 0.942636477053495 0.15352
0.15354 4.20988685136729 3.52118769775928 5.75375107496913 0.222697022462023 0.954478998545799 0.15353
0.15355 4.18482499586204 3.58515654511931 5.59647348055663 0.225887751557577 0.913022665593983 0.15354
0.15356 3.87130804942192 3.29803764028953 5.5334990858908 0.203391890854554 0.921861913583481 0.15355
0.15357 4.24946775908994 3.30768608151295 5.76787415327084 0.204179484075585 0.96343186017003 0.15356
0.15358 4.0721488221064 3.42417564256939 5.83929684025171 0.211536046018842 0.950162088362945 0.15357
0.15359 4.2881799977731 3.30702681984073 5.91133429991232 0.207361538784213 1.00057360194012 0.15358
0.1536 4.32230108151224 3.5554938322177 5.97440745402655 0.218177219864591 0.97196971254508 0.15359
0.15361 4.04890549697932 3.65976366940243 5.82335381979007 0.214645432581278 0.962039058676428 0.1536
0.15362 3.94956278759635 3.41146969885483 5.70450778967194 0.202011273430443 0.951658541957035 0.15361
0.15363 4.239638947943 3.69190205376178 5.7383590125548 0.218819865098806 0.965371403184497 0.15362
0.15364 4.15141075960847 3.4425253516276 5.77968816507952 0.211562798408864 0.960804517652936 0.15363
0.15365 4.13890462759612 3.13497469930152 5.57785450455159 0.206644937095882 0.927194092669218 0.15364
0.15366 4.55416638774256 3.4351722832317 5.54932224527377 0.21920100467447 0.951318516437674 0.15365
0.15367 4.25541575170012 3.43089384530268 5.68507516419369 0.221890154833086 0.939955617264485 0.15366
0.15368 4.35302870670958 3.3038681487578 5.59324997220932 0.206635497055902 0.947723088361661 0.15367
0.15369 4.16122814712971 3.31581321938321 5.84844305749421 0.208453230331977 0.950434320027859 0.15368
0.1537 4.01967921940937 3.32322994162647 5.74130852648156 0.203962655331633 0.965942539604921 0.15369
0.15371 3.91911621112541 3.43138018118441 6.03213027597221 0.209096365492061 0.971069152171225 0.1537
0.15372 4.0648313350993 3.24649617907575 5.83645536150476 0.195879407465132 0.968774089823833 0.15371
0.15373 4.19145701691664 3.47641111833417 5.76883186792598 0.209796170333576 0.970038499249244 0.15372
0.15374 4.21807490483063 3.57086853148167 5.82934239708697 0.223729965499975 0.969916508644302 0.15373
0.15375 4.15701248756411 3.3296416169046 5.8123387951054 0.204903269204931 0.949098706297362 0.15374
0.15376 3.98297250918128 3.48853077870313 5.83207147783725 0.212910184366432 0.961239903958648 0.15375
0.15377 3.88811971338293 3.56179819420096 5.9382598525973 0.210990595577543 0.976425300999594 0.15376
0.15378 3.89921513092893 3.63187236567195 5.78960577170948 0.203375480049773 0.979985441876498 0.15377
0.15379 4.11489010007941 3.84107034768956 5.69285369505696 0.228592936348475 0.940743425408944 0.15378
0.1538 3.87564655301449 3.54090661034138 5.68601701350273 0.202964962535458 0.945894292340041 0.15379
0.15381 4.0491889622589 3.24372087769948 5.84169006745933 0.207833521416065 0.969034556742552 0.1538
0.15382 3.80523543272352 3.35290287952287 5.71197630092189 0.203887691270189 0.927363600017222 0.15381
0.15383 3.963338976575 3.70823338795609 5.80124598958314 0.213292600230018 0.947821303042388 0.15382
0.15384 4.03952509470144 3.66378162858098 5.85040814452122 0.210115156582894 0.977012610915552 0.15383
0.15385 4.26239535758779 3.37074703560423 5.91404761353117 0.214520396518552 0.986757090484896 0.15384
0.15386 3.96320676756721 3.37536424225407 5.93941131604337 0.210128728882361 0.950717096164633 0.15385
0.15387 4.38740654142735 3.79186280713116 5.8024088561952 0.234556930202008 0.97079495087455 0.15386
0.15388 4.3513961663076 3.76118137082789 5.76245272523272 0.231253864698445 0.969776671800089 0.15387
0.15389 4.01626447872691 3.53981473466159 5.8548796239059 0.214135808143934 0.971804978871932 0.15388
0.1539 4.01245875222088 3.17424178902285 5.87999504673127 0.199934545998288 0.967521773126114 0.15389
0.15391 4.10037708535935 3.3408254424745 6.05049173283623 0.205635589975769 0.98383415829174 0.1539
0.15392 4.37635424191248 3.70299261951108 5.86929778158878 0.227162354892666 0.988486762621124 0.15391
0.15393 4.29096914317098 3.54867789064176 5.68324381187785 0.21706720741519 0.966202739276249 0.15392
0.15394 4.61609943059077 3.71480743655575 5.50286307830843 0.240071123020766 0.919797790513555 0.15393
0.15395 4.10002975153028 3.47912852732161 5.56332006693325 0.209646966462519 0.952751169170526 0.15394
0.15396 4.15105149811628 3.24615507912381 5.87875874938927 0.207576673592632 0.972063085771395 0.15395
0.15397 3.99668283230648 3.30353353149723 6.026986141708 0.205010757697782 0.951210005458123 0.15396
0.15398 4.12071237220075 3.58048200814921 5.90629547672877 0.213409261071378 0.980519576643644 0.15397
0.15399 4.06693719724165 3.69607361666796 5.66813702750633 0.218974709092884 0.931642226978431 0.15398
0.154 4.01840328108485 3.61644103042458 5.7342064013762 0.212401931934378 0.961878045062019 0.15399
0.15401 3.92531139469832 3.53488666440996 5.81644538911933 0.212346662594311 0.957817553813868 0.154
0.15402 4.01800756476038 3.86647029402379 6.1401234621446 0.219614875680312 0.98186074610634 0.15401
0.15403 3.84486089711503 3.5630672149595 6.14441153597557 0.206541719671481 1.00113611574643 0.15402
0.15404 3.90195282780994 3.49899357313514 6.05964542667014 0.209412770608027 0.991705804422073 0.15403
0.15405 3.91530817009869 3.52895265480495 5.81940948126599 0.216080533070191 0.962734640467439 0.15404
0.15406 3.96739686693548 3.32259854100164 5.7915452375474 0.209631933359664 0.95859791723045 0.15405
0.15407 3.8789790284449 3.22191616391801 5.81199406964642 0.203494855280717 0.964005223828305 0.15406
0.15408 4.02834239704135 3.368127509769 5.71076093113413 0.202152398991341 0.94221620903585 0.15407
0.15409 4.08005790211706 3.53559645728881 5.77756329327085 0.208493614968884 0.967286049966911 0.15408
0.1541 4.22489074828375 3.42382051621344 5.53725357813733 0.218864554129095 0.936867418432561 0.15409
0.15411 4.18531571890255 3.56672394395897 5.52200406292004 0.212049857177355 0.93305329045861 0.1541
0.15412 4.31247249065176 3.6207984985333 5.59162357958911 0.225295985345188 0.936566560091098 0.15411
0.15413 4.23993985988065 3.58012256119772 5.61639284835896 0.215969339343118 0.953320400534987 0.15412
0.15414 4.23477393881769 3.43363962112742 5.83392692727419 0.219930342995588 0.964048400262243 0.15413
0.15415 4.3498079842355 3.39133291852123 5.9877108984751 0.21617960871496 0.977378099289881 0.15414
0.15416 4.37802803301629 3.54004573933529 5.95110424085786 0.222680956627832 0.975162257881767 0.15415
0.15417 4.15406646267667 3.32151557179489 5.80114884203583 0.203886858043133 0.96339954145921 0.15416
0.15418 4.14569657225315 3.26883579815166 5.7882553210459 0.214492349307906 0.96029811015151 0.15417
0.15419 4.39944376286678 3.149720965465 5.90876482079438 0.210385282401752 0.981575303768185 0.15418
0.1542 4.20392976493767 3.39430861653487 5.91370347342938 0.21080376145075 0.98759431897108 0.15419
0.15421 4.35484003831117 3.53432734652149 5.88036702765461 0.222833814861932 0.982904263186487 0.1542
0.15422 4.31522607757699 3.55883169939376 5.85783124343016 0.221900023229941 1.00087237716636 0.15421
0.15423 4.17240580815385 3.57249663224775 5.85364501040369 0.220037978883377 0.947463495914596 0.15422
0.15424 4.00704161747124 3.70156602822818 5.84171439307421 0.222918932852136 0.954456120891153 0.15423
0.15425 4.3438918429895 3.88229188637126 5.488814426054 0.233391344209293 0.94783223944637 0.15424
0.15426 4.14127380698177 3.58645197686909 5.84974983883781 0.207921870230772 0.974809944464696 0.15425
0.15427 4.15211052802989 3.209163717596 5.73304372719016 0.208426270726239 0.945102042192697 0.15426
0.15428 4.1541855932228 3.35295372736605 5.76224926063532 0.207332803829811 0.950883367314134 0.15427
0.15429 4.05696380861485 3.6631348222511 5.78219355169659 0.21524164082715 0.978579191957047 0.15428
0.1543 4.06347701181782 3.80056766254047 5.88384686303753 0.218931626632573 0.978713346062998 0.15429
0.15431 4.34396253252622 3.58165492651887 5.713685363201 0.220616724100022 0.974349989480963 0.1543
0.15432 4.26058672112347 3.42108928350354 5.85754289456533 0.217571002485454 0.962405481937347 0.15431
0.15433 4.07373598120355 3.32878893417011 5.97321409784129 0.204780187731193 0.990569088975834 0.15432
0.15434 3.8421772507 3.22659461648028 5.86793497149598 0.200514600151004 0.948952168493741 0.15433
0.15435 4.03597796144292 3.14563314237122 5.72684669907331 0.190886030737879 0.939781994477899 0.15434
0.15436 4.29161614191084 3.23062544281556 5.84831815962839 0.207389765480864 0.972388418709062 0.15435
0.15437 4.2943971774347 3.53938654573646 5.71375948901731 0.227526643392651 0.950284495146388 0.15436
0.15438 4.69090795281478 3.68925651883748 5.79108042800701 0.234325715443615 0.964063416856709 0.15437
0.15439 4.18201504405456 3.65797141272428 5.75697874707422 0.221276968649083 0.954118051830191 0.15438
0.1544 4.20122172255899 3.48880345116831 5.87028389601122 0.209514235635587 0.961571776002315 0.15439
0.15441 4.04087510851695 3.43154439565099 5.8183524352855 0.209988058460247 0.930702385036461 0.1544
0.15442 4.3526537475929 3.3431534414782 5.93946960398166 0.22025151183247 0.972905575985006 0.15441
0.15443 4.31906947727784 3.43221055200954 5.71167622056238 0.210614694316641 0.98278177885636 0.15442
0.15444 4.24851624617129 3.29169839418759 5.83500143564943 0.211948050583636 0.953053371299264 0.15443
0.15445 4.2357809638447 3.1190303274431 5.85717302456864 0.203827402405512 0.979689114031093 0.15444
0.15446 4.20959182657998 3.39265590674682 5.83743411668266 0.213548976099955 0.963711991416545 0.15445
0.15447 4.17964913645783 3.70661416246605 5.9660585954281 0.220635179666774 0.98317849375885 0.15446
0.15448 4.41502693870906 3.40634741996485 5.94046135597611 0.228626225427884 0.968300488342381 0.15447
0.15449 4.21089652902145 3.33303187960725 6.00009050166099 0.21978350098838 0.975411489674713 0.15448
0.1545 4.41425210367157 3.25399642959764 5.78924590255264 0.211221517154999 0.946130594469622 0.15449
0.15451 4.3754787922378 3.60518046350429 5.68510460034914 0.219384736500955 0.961504170556596 0.1545
0.15452 4.33176465839036 3.77141667646265 5.7274214802171 0.224889919424918 0.982032053661393 0.15451
0.15453 4.23862709225956 3.52602359427024 5.82447069230829 0.214262927797784 0.968679237995831 0.15452
0.15454 4.19377267496232 3.59151682364884 5.64901302540734 0.218051265598811 0.941854312003737 0.15453
0.15455 4.16377543799849 3.84508912719506 5.55492059178624 0.223308177120954 0.955270817862284 0.15454
0.15456 4.20541639908471 3.44911304656296 5.90208399904438 0.219047954814716 0.959066129655259 0.15455
0.15457 4.42436115443786 3.66864462213826 5.58578119052272 0.22146363198613 0.93880869961756 0.15456
0.15458 4.08190160594294 3.69063766739908 5.8442669817817 0.214101851981714 0.973792478139082 0.15457
0.15459 3.90163851306573 3.52351105126945 5.96979482460561 0.208436011065873 0.982911929514868 0.15458
0.1546 3.91770209257536 3.55188072542818 5.98688707989814 0.213063302170693 0.966067238930804 0.15459
0.15461 4.03159229898221 3.4481290846774 5.9739712790525 0.200802127245988 0.994710562025964 0.1546
0.15462 4.14927122912888 3.52291218645 6.11034448701602 0.219318319261391 0.992747658617678 0.15461
0.15463 4.1653422997578 3.24233057519669 5.81555406704994 0.205782728103334 0.949187966814436 0.15462
0.15464 4.28479298664152 3.54706792993927 5.7411504092397 0.223196170253819 0.954746723337797 0.15463
0.15465 4.27415214807292 3.55932411685985 5.89524505679039 0.219121325108577 0.982113016830221 0.15464
0.15466 3.82494393110138 3.64249188976851 5.94053673607684 0.198234422339851 0.974538482743697 0.15465
0.15467 3.82776860142041 3.33749747069096 5.92383480041289 0.206968130142116 0.959361732005672 0.15466
0.15468 3.87634642554939 3.27837044349062 6.023963350329 0.195994083817657 0.966102088304555 0.15467
0.15469 4.00135860621372 3.23066882186372 5.95755664909138 0.205547112944349 0.968662423887401 0.15468
0.1547 4.40620389524678 3.41201899353099 5.92213887551948 0.226610945236048 0.989237658626329 0.15469
0.15471 4.25945649634492 3.55419952504114 5.6814664640552 0.215487776599431 0.953761542575111 0.1547
0.15472 4.31157205910599 3.45090036623068 5.6736902238756 0.21227831819303 0.965309512025684 0.15471
0.15473 4.12640116574406 3.50142464688438 5.70583079119541 0.210541136604742 0.937844500313777 0.15472
0.15474 4.14832566444979 3.45510566301872 5.76166218673634 0.204363557539126 0.956964020405421 0.15473
0.15475 4.15201453608111 3.81121843756008 5.91831915894214 0.220773827414176 0.996205579255658 0.15474
0.15476 4.16980702251498 3.74289572831606 6.04711283948194 0.230699202382224 0.972684756473053 0.15475
0.15477 4.00477220282279 3.57055791003146 5.80925331914029 0.210277033443138 0.966207423801846 0.15476
0.15478 4.18222582954504 3.43424988774278 5.89113978076249 0.206655452106509 0.981420462164696 0.15477
0.15479 4.34819158848709 3.53394839516198 5.93741575398252 0.222525546364503 0.977654966546593 0.15478
0.1548 4.41736719188722 3.65750800508624 5.85828147629444 0.228655364910275 1.01132237354883 0.15479
0.15481 4.29888574852937 3.61859148787298 6.06959599368907 0.215105306247165 1.0146310578236 0.1548
0.15482 4.39808589662405 3.25453365597441 5.85497992874104 0.209187152471922 0.952465057283215 0.15481
0.15483 4.03884784639712 3.60016250220653 5.68610227709255 0.220303520815239 0.936534495417829 0.15482
0.15484 4.10964818642521 3.63872252420994 5.65188324414667 0.222666020116111 0.954500499369593 0.15483
0.15485 3.96060596236215 3.61295052308549 5.75227638971791 0.208783502508743 0.964972252839711 0.15484
0.15486 4.4453082567249 3.8063640293349 5.72338009264194 0.232018468372867 0.961725263425578 0.15485
0.15487 4.41704884630902 3.85626752352405 5.86476401174494 0.230355228266153 0.980446392425796 0.15486
0.15488 4.36221227889602 3.74442062156963 5.79231531723168 0.219794176254246 0.978398619573031 0.15487
0.15489 4.08229369995074 3.33690419638685 5.803460015225 0.207523021255048 0.961689648950694 0.15488
0.1549 3.84941447549074 3.26206430403456 5.75011558855352 0.190076318975492 0.95493000566932 0.15489
0.15491 4.05313494230672 3.44229602595237 5.97809211691222 0.207297741837504 1.00245379831344 0.1549
0.15492 3.95055042784167 3.46386711840675 6.15706866131188 0.203863473930627 0.977342801577496 0.15491
0.15493 4.13026358095203 3.57261788138404 5.94727089059256 0.224243896201476 0.970278331433142 0.15492
0.15494 4.20693043495753 3.56313201937736 5.69646603189956 0.220539715779638 0.963958339210604 0.15493
0.15495 4.20241477659124 3.93714841112893 5.82327510796748 0.222074805025909 0.989116642396199 0.15494
0.15496 4.23271718463829 3.61703699163935 5.82708168533697 0.224037772867492 0.976097165106612 0.15495
0.15497 4.36765814669432 3.48879029362176 5.80878153248874 0.219297736518485 0.967991489761083 0.15496
0.15498 3.9956342085205 3.175909405382 5.97135828293286 0.194742355683343 0.981035980301516 0.15497
0.15499 4.16339593567342 2.71489896799214 5.96472828770834 0.192233537679352 0.966687200914682 0.15498
0.155 4.2791841577327 3.13436328381686 5.93288522435294 0.213558046131945 0.947509786716962 0.15499
0.15501 4.2183927019766 3.53375672799196 5.88188877479144 0.221850934368844 0.968800652741936 0.155
0.15502 4.63836481078308 3.64329762103476 5.74000861560041 0.225425475290272 0.98244526749983 0.15501
0.15503 4.38882834696971 3.72683138122464 5.66535424774199 0.238173983118743 0.958389935272905 0.15502
0.15504 4.45981428331546 3.55956081937258 5.6154072501418 0.229421216483724 0.950326693509498 0.15503
0.15505 4.32822952110923 3.46989880209136 5.73135486433666 0.222124419644678 0.940556912840768 0.15504
0.15506 4.45018843900157 3.4291068504497 5.79663526270707 0.21998918792571 0.977485797091593 0.15505
0.15507 4.30604438651059 3.49037339659843 5.65585686350709 0.219815325925051 0.943647507428939 0.15506
0.15508 4.4348989423921 3.28440100630218 5.80630106760471 0.216368304179621 0.984360474527957 0.15507
0.15509 4.4740829827792 3.2974077830148 5.90514479716737 0.21946399123762 0.976534451669327 0.15508
0.1551 4.4166117878202 3.58708204033189 6.06647115954338 0.222426489254947 1.00327281821557 0.15509
0.15511 4.06630074190075 3.53530672951427 6.32087658944211 0.20677448316284 1.02684251060906 0.1551
0.15512 3.79486401410123 3.60742349575392 6.12861310185812 0.212128186935207 0.970728087694548 0.15511
0.15513 4.12013856374609 3.63287685814629 5.93178318444457 0.223546118157522 0.979914189594793 0.15512
0.15514 4.51122858520092 3.4423947528972 5.70373943866945 0.221339953479364 0.963881004775895 0.15513
0.15515 4.50565630030898 3.60462988942444 5.80032067441623 0.228925540177429 0.966678688297478 0.15514
0.15516 4.33171218649012 3.51136329037416 5.76366725409564 0.226728088267184 0.956659235773283 0.15515
0.15517 4.14028357483254 3.37714804163647 5.76628455903392 0.207311698586711 0.957872265553118 0.15516
0.15518 3.96448890831996 3.59214059488199 5.71816218959176 0.220002843925523 0.925605253584481 0.15517
0.15519 4.29311145467674 3.64187656204354 5.6859429658212 0.225225862915169 0.95919145162433 0.15518
0.1552 4.2485612038435 3.44687786493279 5.81405145874605 0.21631838686182 0.987764444110981 0.15519
0.15521 4.37335805426005 3.33844014414957 5.88733425008241 0.210491772026078 0.993587949377859 0.1552
0.15522 4.52539894530565 3.16700161995917 5.98127692394807 0.213680126588479 0.981730944578339 0.15521
0.15523 4.35253563159135 3.1423272776314 5.92827076223055 0.216770904399363 0.978049409010282 0.15522
0.15524 4.42485617557486 3.412694400971 5.66542381520186 0.217232135047832 0.960359884934321 0.15523
0.15525 4.23920061247358 3.24580780427893 5.97661049424146 0.204396136384152 1.02223978624562 0.15524
0.15526 4.4446931129715 3.39766788023465 6.07031774453018 0.224692421858288 1.01562033731083 0.15525
0.15527 4.26629873764433 3.66484728759273 6.10512141369653 0.221394699572455 1.01581126972319 0.15526
0.15528 4.44166699595645 3.42517402988346 6.08385736931501 0.219222876657321 0.998782628803907 0.15527
0.15529 4.44995171272301 3.6877113420738 5.7266105507362 0.224323865304118 0.958726001129827 0.15528
0.1553 4.28791019647743 3.86248305815241 5.7314643306289 0.228481946447812 0.981073548612573 0.15529
0.15531 4.30590820004717 3.52460944743068 5.6556652726735 0.213106976903252 0.947908093445222 0.1553
0.15532 4.65823974686186 3.57616335480002 5.52668725265155 0.232847231926778 0.937496942857441 0.15531
0.15533 4.66744020654919 3.63271807929365 5.68839838992175 0.236867886904705 0.981379157087175 0.15532
0.15534 4.44208531379674 3.48159559734937 5.99169550732375 0.218905783204743 1.00680054722916 0.15533
0.15535 4.24151719212984 3.48006487105044 5.86459206360259 0.216254205448144 0.95739020284068 0.15534
0.15536 4.20780467218247 3.41478408688266 5.80325219954922 0.21264396309745 0.964281377477315 0.15535
0.15537 4.02416827232708 3.31051963025494 6.06071680696991 0.208708610548852 0.993396906909224 0.15536
0.15538 4.13893797129685 3.12703466832906 6.24011737229614 0.196619202240172 1.02454877990419 0.15537
0.15539 4.15805369336769 3.23534377058041 6.27816662916503 0.209556042622753 1.00816788280944 0.15538
0.1554 4.3874788040845 3.89260344128816 6.1841817619838 0.230359263089464 1.06800603938804 0.15539
0.15541 4.35803127013935 3.72423166250841 5.98526254078773 0.221875406582352 0.992107355927969 0.1554
0.15542 4.20643718394451 3.34631828735348 5.80218123386427 0.21519225063912 0.959416060984258 0.15541
0.15543 4.1282223266131 3.49884977059327 5.70482524298596 0.21889053692511 0.947254130790668 0.15542
0.15544 4.28393630129925 3.54942019591064 5.6468587187891 0.216594051497621 0.954325286558155 0.15543
0.15545 4.19949556677976 4.03297701034434 5.79841832423113 0.231142845744063 0.973068110097402 0.15544
0.15546 4.31143912035312 3.80015633822236 5.75882116956946 0.231166985097485 0.980401684762471 0.15545
0.15547 4.42915930798684 3.52144971445873 5.84683258427686 0.22023553006408 0.986566604734917 0.15546
0.15548 4.14567790161675 3.4062112080009 5.64974453092802 0.217437446575881 0.934569979867183 0.15547
0.15549 4.08628128364267 3.39053930464359 5.87654668061243 0.21779132554607 0.967358480683659 0.15548
0.1555 4.1987867145937 3.37918111548593 6.11521119162653 0.21380859774075 1.0069674283061 0.15549
0.15551 4.1044503454011 3.20849735505231 6.07203244043854 0.203846399715236 0.992347293623822 0.1555
0.15552 4.22770482608305 3.49909436596966 6.05031174819645 0.214861703936468 0.999672060549501 0.15551
0.15553 4.13745737372534 3.85597510185818 5.93081428699588 0.228134231758481 0.982598661943591 0.15552
0.15554 4.61888262122158 3.73860575669707 5.80968282148729 0.232150307419834 0.990860684638865 0.15553
0.15555 4.49649753702408 3.72335222698676 6.07445849412616 0.227565904162621 1.00937845443117 0.15554
0.15556 4.2942436454478 3.49553994619091 5.81657637454042 0.221427771405817 0.960719019642357 0.15555
0.15557 4.25111025406106 3.53681992976242 5.9562136343152 0.219735392974623 0.964386666787186 0.15556
0.15558 3.98398816892946 3.41754797879045 5.67229684426895 0.207631844524641 0.947993464418938 0.15557
0.15559 4.19470816124843 3.26011452706863 5.59185147640948 0.210787630915626 0.931991747974931 0.15558
0.1556 4.4296306965604 3.70914597155527 5.75906188300361 0.221885310219255 0.979801511831216 0.15559
0.15561 4.17346055976312 3.52339269722446 5.87998128729281 0.219326727953338 0.956528574870845 0.1556
0.15562 3.9092754115148 3.60841790520882 5.9644231449483 0.212224642208091 0.976338429060248 0.15561
0.15563 3.88991750545264 3.40683315622961 5.90995215409329 0.205575675584091 0.948456120567065 0.15562
0.15564 3.95887356190699 3.23174087465183 5.90088801178262 0.209875411025269 0.960332921766822 0.15563
0.15565 4.15282626949393 3.87865994704266 6.19062631676697 0.221676694239604 1.01172569092469 0.15564
0.15566 4.31458647592095 3.70356727068776 5.84120778147994 0.221491797247053 0.993118049644366 0.15565
0.15567 4.014052691605 3.2541412574205 6.02359417021326 0.201329840993697 0.994285492064953 0.15566
0.15568 3.80457747011964 3.20434408412429 5.93522469835237 0.194851655692945 0.950028324539151 0.15567
0.15569 3.88368114416376 3.62696567552322 5.92237118692548 0.206964766172549 0.994771134258471 0.15568
0.1557 4.11858939418893 3.74163231606301 5.90256688841203 0.223814312923562 0.987887447785991 0.15569
0.15571 4.0180792692037 3.86337511041291 5.82680666868965 0.218233743936733 0.969512469181701 0.1557
0.15572 4.3675169726972 4.07673963822163 5.93972759353658 0.235326050704728 0.991672181296725 0.15571
0.15573 3.99139497023233 3.52574709738908 5.65796913613719 0.211438370486274 0.931053917781934 0.15572
0.15574 4.06036683338377 3.35695247445229 5.68742882443765 0.213375080765474 0.939629731096048 0.15573
0.15575 4.17317850191551 3.03349253252928 5.74963001203578 0.202387900000047 0.94150991266824 0.15574
0.15576 4.36930065624687 3.68497434043884 5.89924430137425 0.221380642736854 0.990716020164408 0.15575
0.15577 4.42666440302623 3.50474812420811 5.99551843045832 0.222147792189636 1.00294644880593 0.15576
0.15578 4.32029824343 3.69252726866658 5.92800387494572 0.218908335097887 0.969599676364493 0.15577
0.15579 4.10271878827571 3.51679823652004 6.17976549268678 0.212662182998068 0.999367846911892 0.15578
0.1558 4.06497422045742 3.5988870164202 6.09363277768156 0.215439206521455 0.983752457466881 0.15579
0.15581 4.12859605052896 3.29761229250379 6.05290062815649 0.210987801204555 0.981954286621124 0.1558
0.15582 4.31600610422293 3.47646667251088 6.02979773817157 0.215784833861017 1.00435221815447 0.15581
0.15583 4.34860024814664 3.56576345041309 5.89704389608955 0.226229445361978 0.981625075377633 0.15582
0.15584 4.30851861407319 3.61432287324699 5.66812312870483 0.221692514258246 0.93365313099538 0.15583
0.15585 4.22415760117359 3.63313751197044 5.51560135944201 0.224300068063311 0.937798330558407 0.15584
0.15586 4.11427229646275 3.73335562321629 5.69634487182678 0.220360253061619 0.965243353713115 0.15585
0.15587 4.2927674957108 3.42487549550223 5.93383277535618 0.222803355768242 0.97127185801043 0.15586
0.15588 4.24556637775247 3.48148866702268 5.85014872340212 0.220567965166924 0.96234313782408 0.15587
0.15589 4.16079277287479 3.49478388846262 5.86907693824287 0.214965810613924 0.973046966751959 0.15588
0.1559 4.17897426764354 3.48627894812683 5.91906437134168 0.210249978111993 0.959709701311541 0.15589
0.15591 4.19326732521765 3.77687661555122 5.65452400067879 0.222970479134859 0.960872865983099 0.1559
0.15592 4.51845877538464 3.40686383788894 6.03818321439297 0.221935448379138 0.979006842447861 0.15591
0.15593 4.07611075042568 3.27902693022448 5.94742931425015 0.202283927427291 0.970113053124742 0.15592
0.15594 4.32451818972044 3.30457788090401 5.79621487294349 0.220861972120439 0.957004949029629 0.15593
0.15595 4.15441065659887 3.33099953711008 5.68139642673869 0.206941063273878 0.948051586375357 0.15594
0.15596 4.26164229953263 3.65583795743543 5.69386293990864 0.221299292910931 0.9514824761766 0.15595
0.15597 4.10261501486649 3.16467333336606 5.93866756425373 0.206988180569047 0.969560404272656 0.15596
0.15598 4.09690719228693 3.26718442458193 6.15945161258499 0.20455667985948 1.00739541636438 0.15597
0.15599 3.98689349235447 3.44063163805722 5.96719880535502 0.207881136069185 0.958340169771399 0.15598
0.156 4.14839213681841 3.30706720286612 5.96136575345865 0.208562792262568 0.97626431512485 0.15599
0.15601 4.22741631920973 3.58554220310621 5.74871581382742 0.212212266490338 0.980505886175129 0.156
0.15602 4.16374800893998 3.46737080911106 5.79241097146833 0.21577480634608 0.946869866011491 0.15601
0.15603 4.16514419116134 3.49864648097962 5.69908076799601 0.212333020224913 0.936925376689957 0.15602
0.15604 4.0503489641828 3.75703201914449 5.81857186954806 0.205677850343694 0.96903900235195 0.15603
0.15605 4.06228656837823 3.75716963580139 5.7547939250765 0.223754899150076 0.966153087606664 0.15604
0.15606 4.2254315626119 3.53384532384703 5.90815828464092 0.21784467202071 0.981115963324776 0.15605
0.15607 4.18056591380904 3.56748004392185 5.84346837432142 0.21824783316736 0.958401152749742 0.15606
0.15608 4.50623183959594 3.50661115621275 5.75656039525957 0.225864288106356 0.963333317912095 0.15607
0.15609 4.35410532379458 3.8561311809439 5.78527498634805 0.233395446228427 0.974104396618463 0.15608
0.1561 4.14856609438708 3.35866020179059 6.03386427821112 0.206425791772272 1.00136539707064 0.15609
0.15611 4.40032453858378 3.47554310402708 5.868096164185 0.215154864263642 0.97073267093835 0.1561
0.15612 4.0363507558261 3.61963346259082 5.92853212870316 0.215777338716332 0.981892996883253 0.15611
0.15613 4.26030428436638 3.46962089084712 5.7845636899247 0.216995837021818 0.960319650380334 0.15612
0.15614 4.35339628241286 3.50391225553165 5.93380358939035 0.218425352264576 0.997097984253974 0.15613
0.15615 4.29015032474255 3.25099347347028 5.86462607668312 0.214671169840591 0.955914689538375 0.15614
0.15616 4.57803315880645 3.85307988905752 5.9568198839737 0.239514344104568 1.01315469405648 0.15615
0.15617 4.54311118229648 3.69061909794005 5.97913622153568 0.231373382146163 1.01677861655739 0.15616
0.15618 4.14240084861695 3.55768535841153 5.90318374034037 0.216586477551869 1.00715101621583 0.15617
0.15619 3.98618846106335 3.2135674476151 6.00923175002735 0.197528508748611 0.983122197602303 0.15618
0.1562 4.08922632362272 3.46215710807063 5.83964102931185 0.214237965990213 0.956890289595451 0.15619
0.15621 4.15110232135005 3.60273486217548 5.99947318071471 0.211800719161986 1.0045434421677 0.1562
0.15622 4.22103901600281 3.78962896171724 5.93872710840886 0.228514477882961 0.985096051816301 0.15621
0.15623 4.67035626320876 3.55582692887076 5.91609140557267 0.229661739339605 0.990227118823296 0.15622
0.15624 4.08641107058925 3.31231760252376 5.77180976826281 0.204305265873847 0.952009326965898 0.15623
0.15625 3.77816557081129 3.59289275844494 5.82637334787824 0.212679786431476 0.930948137924929 0.15624
0.15626 4.1179670539125 3.79703477299105 5.77296961794905 0.225471673919755 0.971746756104214 0.15625
0.15627 4.24327682264954 3.72097456851095 5.90126132489542 0.218279245024678 0.982473312329758 0.15626
0.15628 4.05684124258384 3.9224125887853 5.87734903541582 0.223076689448293 0.974796832079802 0.15627
0.15629 3.95028003899363 3.53265723190246 5.68174796958204 0.203983266575739 1.0034137648662 0.15628
0.1563 4.15749960842384 3.56117575241142 5.81943014942035 0.219771566018596 0.97322155849704 0.15629
0.15631 4.07641845901986 3.42004797807801 6.16806253054622 0.203015635513149 0.999314146522373 0.1563
0.15632 4.08296238211143 3.46971136496115 6.18312063220227 0.210984572105492 0.99350905651906 0.15631
0.15633 4.03481000086319 3.82419200265769 6.05884504303129 0.222153219629651 0.995194559820912 0.15632
0.15634 4.05569481728771 3.58789401897921 5.85056998130951 0.218902010518594 0.955701242686679 0.15633
0.15635 4.11785382918272 3.48612849109613 5.89583444680198 0.20551544760597 0.984922734832974 0.15634
0.15636 4.45727899959908 3.87795877382031 5.7184169802319 0.235517807918094 0.961222689116596 0.15635
0.15637 4.70174564991613 4.12166186615828 5.92277045786872 0.252063600331976 1.00421540621423 0.15636
0.15638 4.0694865932274 3.71896131127865 5.81978680289227 0.221713574360293 0.959701534399039 0.15637
0.15639 4.12766182419196 3.50042766747375 5.96528666151981 0.215416519531965 0.994001228551101 0.15638
0.1564 3.86555792049845 3.40608349188096 5.85748001385488 0.198034295702701 0.988755397964782 0.15639
0.15641 4.16852195036958 3.43323113248975 6.0409360877532 0.218383788920833 0.974222873446428 0.1564
0.15642 4.34494976626412 3.82357631021768 6.00383320447458 0.228476188161551 1.01869488386293 0.15641
0.15643 4.42389632154912 3.56799008852632 6.05247003777845 0.220548461202521 0.996566504794147 0.15642
0.15644 4.34471527041753 3.43741992283693 6.01269402109805 0.216714548635879 0.969308513762835 0.15643
0.15645 4.22118120457184 3.73101224512367 5.77515980395095 0.22169037232835 0.974798761891178 0.15644
0.15646 4.00698221322418 3.54688007469356 5.70195809521343 0.213184879300735 0.952324744688418 0.15645
0.15647 3.85353044223208 3.69936344585337 5.97964174306054 0.217300759358286 0.974354824602716 0.15646
0.15648 4.1518322996341 3.6806976226555 5.87320644290932 0.223258982010842 0.980086943470257 0.15647
0.15649 4.15395201740784 3.47573857963482 5.89678234878282 0.207632054436693 0.985608516328314 0.15648
0.1565 4.3618746903958 3.69298300718636 5.83206887959808 0.224260564098579 0.986162710923413 0.15649
0.15651 3.78399166077736 3.6352699707451 5.81098066557964 0.199622763447233 0.972484742391165 0.1565
0.15652 4.09205378707047 3.55860251543172 5.93997334295831 0.217152246602212 0.974949505017612 0.15651
0.15653 4.21994604587452 3.50807206552246 5.93958872047075 0.221537610359093 0.97371164905021 0.15652
0.15654 4.22866163352215 3.61669497358625 5.99731888235512 0.223059093050256 0.974483314078008 0.15653
0.15655 4.26851019176354 3.65018383241898 5.9501597212439 0.230904072166732 0.971598891725801 0.15654
0.15656 4.32936878131642 3.80819413964393 6.06706332667036 0.224546291550688 1.00636785118327 0.15655
0.15657 4.14021991391149 3.83659526761662 6.04195440266893 0.22937993103048 0.985326164484114 0.15656
0.15658 3.72551624019824 3.31600717908875 6.18175587363256 0.199886718888612 0.996046216645293 0.15657
0.15659 3.95455657266186 3.79237890766769 6.28299009209938 0.207786964222282 1.03297580307643 0.15658
0.1566 4.13029609147943 3.72400227215858 6.07233950661714 0.217014612664027 0.99387441651626 0.15659
0.15661 4.08347836217482 3.68207126493948 5.72277536628347 0.222294624453173 0.956258015039053 0.1566
0.15662 4.19142754770377 3.72292079964467 5.78936946641324 0.213338621208558 0.971106962859343 0.15661
0.15663 4.32788215272656 3.63699504782114 5.73103098638734 0.230309684947788 0.946087108032364 0.15662
0.15664 4.15506468081322 3.43558935267358 5.62292834186876 0.218178834488628 0.955753961915711 0.15663
0.15665 4.51017244853674 3.59730086865158 5.89731491507323 0.228082111307393 0.986505912794375 0.15664
0.15666 4.24828121605592 3.69869227566458 5.81129282968897 0.220968443409388 0.965372950800386 0.15665
0.15667 4.30616401115214 3.54812808279709 5.89791507470886 0.22512591418803 0.977992333837519 0.15666
0.15668 4.32780774798944 3.66161822370939 5.78933407840666 0.21778837395635 0.985309878342427 0.15667
0.15669 4.19300762803058 3.52788578977378 5.89495315125341 0.212341320930789 1.00103912073088 0.15668
0.1567 4.46276857900122 3.60637201570115 5.9171330347494 0.229347417185213 0.98009602275824 0.15669
0.15671 4.59793192261244 3.7410037539689 5.92424448526732 0.222811683906365 1.04617806414472 0.1567
0.15672 4.6993754607304 3.57625212348073 5.79067856190034 0.226930257810128 0.97636781331031 0.15671
0.15673 4.19609141256609 3.43037694115902 5.97066107651109 0.220300548948936 0.982096367153631 0.15672
0.15674 3.96206376417891 3.29892529862812 5.95756058319561 0.20126624002961 1.0165454098583 0.15673
0.15675 3.83807247067541 3.56202217920739 6.22477214354682 0.206491299757448 1.00778694992317 0.15674
0.15676 3.98370575979222 3.63319735279771 6.22572994016121 0.218040289804777 1.00735612798521 0.15675
0.15677 4.36240028885858 3.93790892176217 5.95768227416107 0.236668257206858 1.0011461883805 0.15676
0.15678 4.07090042218913 3.50212744256476 5.8052665460019 0.217505624317659 0.965415686585611 0.15677
0.15679 3.91027501638374 3.37245811546287 5.95057797684171 0.199298468611666 0.976293323624026 0.15678
0.1568 4.5301566170691 3.67031275074333 5.95756533706619 0.225524141335896 0.997589318789856 0.15679
0.15681 4.46425208413383 3.45266272553844 5.97878270401576 0.225447399539836 0.983420207912075 0.1568
0.15682 4.54659239467856 3.72857304133399 5.72203085805046 0.239013975795913 0.970692849175063 0.15681
0.15683 4.45537740687118 3.5093542860838 5.81017989751088 0.219893800516173 0.966871906345876 0.15682
0.15684 4.24755996197392 3.72098304344147 5.82146210706596 0.22067574705732 0.96998043820978 0.15683
0.15685 4.28104888446906 3.72167304376059 5.80947256019211 0.220014223513456 0.99689053190435 0.15684
0.15686 4.66026097591359 3.74777850461483 6.01019347975112 0.230689328331556 1.01135492827993 0.15685
0.15687 4.52929806930796 3.75410428514791 5.99748505335155 0.229706453926307 0.997198087020713 0.15686
0.15688 4.19033877529332 3.52830172505455 6.00962246932046 0.216585299179403 0.971449259883703 0.15687
0.15689 3.97960720727507 3.34289271402784 5.91782652921159 0.201761995960845 0.988198240798621 0.15688
0.1569 4.01534386692907 3.51102157841015 5.94104897858761 0.212853756395864 0.981039554450952 0.15689
0.15691 4.45162910489075 3.61893974179318 5.96426434308144 0.214912878850489 1.02560501347276 0.1569
0.15692 4.67074642184818 3.74263397945358 6.13039167524072 0.242660900386941 1.01209434150534 0.15691
0.15693 4.48690262725486 3.65507888696703 5.81856535807961 0.219684114783402 0.991617843342414 0.15692
0.15694 4.44878839271925 3.90778025934683 5.75846228508741 0.234366133993324 0.965923054566478 0.15693
0.15695 4.17299812645872 3.67095949162013 5.6956262284662 0.222045238874836 0.955511532679224 0.15694
0.15696 4.52835831047724 3.60739591848152 5.84571597986341 0.228091975330223 0.97485197079356 0.15695
0.15697 4.3852743328769 3.78090204116747 5.83207475145412 0.227166721324037 0.985806420498329 0.15696
0.15698 4.39135123956124 3.53450601176388 5.87773852434934 0.220874498255261 0.98038003749109 0.15697
0.15699 3.97526630506177 3.53563791693689 5.98157626076068 0.208846487768449 0.979823567236049 0.15698
0.157 4.22496284415265 3.13384270472813 6.14863486404855 0.20597084479385 1.02448232881811 0.15699
0.15701 4.32516347142538 3.44834130303296 6.01247722312415 0.221934221858343 0.965381003230719 0.157
0.15702 4.41312436368746 3.63032218018912 6.11419682134945 0.222805796600209 1.02986964871056 0.15701
0.15703 4.21015599645022 3.32429895612242 5.99916512595766 0.20680658982397 0.950584007815398 0.15702
0.15704 4.07787704088793 3.53599333445412 5.88901214330786 0.206064849770126 0.976801783445618 0.15703
0.15705 4.15446597635854 3.64759756194649 5.95103890569388 0.21775604454138 0.986407742923939 0.15704
0.15706 4.3664410585829 3.69308994222358 5.86390913701389 0.229415700474957 0.966070402759644 0.15705
0.15707 4.13945046834332 3.6098353647732 5.96736212918383 0.21403329676428 1.00793799595719 0.15706
0.15708 4.32471910205697 3.47382080547422 5.82226329679572 0.220060356621584 0.975708966107427 0.15707
0.15709 4.40653970052329 3.62862373932076 5.81088049997063 0.218617903729066 0.995329914083666 0.15708
0.1571 4.56700456693453 3.87874295130271 5.93882136581392 0.247487850632841 0.985166635387477 0.15709
0.15711 4.38713569916367 3.8691555199112 5.76891988700836 0.229538264303741 0.979545273596977 0.1571
0.15712 4.1048378468691 3.91469276938228 5.98368463739102 0.220188559120996 1.01205603796147 0.15711
0.15713 4.22761161249778 3.7799186087391 6.02101482930382 0.234811484417244 0.982367988007635 0.15712
0.15714 3.93262637472858 3.74621960416766 5.83405403688959 0.221224368590915 0.960491499403611 0.15713
0.15715 4.1347303547496 3.75779024163426 5.78959264496721 0.222281600143491 0.991048205291693 0.15714
0.15716 4.28491424999044 3.72023509349915 5.87042314059308 0.216314275009231 1.01091375629081 0.15715
0.15717 4.24363182958702 3.48170090119881 6.04185360875048 0.213214173092133 1.00454991806556 0.15716
0.15718 4.54095814935692 3.99668465342281 5.90662454551518 0.24801198016622 0.988536410949374 0.15717
0.15719 4.29684938477976 3.6755673113975 6.0890967067493 0.21698307525947 1.02023546538093 0.15718
0.1572 4.07414209183319 3.34428647208781 6.15577965401869 0.214172779853846 0.986572585455742 0.15719
0.15721 4.12245442644753 3.37055699723417 6.11836225719963 0.205086833489526 1.014297573192 0.1572
0.15722 4.38152956740864 3.84829844095542 5.95536097471125 0.221282638605556 1.02489966394341 0.15721
0.15723 4.13569979724795 3.89462171903443 5.87553125642031 0.22928315183313 0.978273015760521 0.15722
0.15724 4.24726889280558 3.98617214640564 5.84679423832311 0.238379289070783 0.987731381216032 0.15723
0.15725 4.12942270861213 3.89880420907909 6.03906568036344 0.22886229060317 0.99822551147127 0.15724
0.15726 4.28399374658932 3.79969185137071 6.0240355778154 0.219021292590006 1.00648084273089 0.15725
0.15727 4.23094503034765 3.68642945236177 5.97344829008389 0.226350308309988 0.983823302891503 0.15726
0.15728 4.18942642304934 3.56838297835943 5.89224836655009 0.213866580597269 0.989186384798466 0.15727
0.15729 3.91133853683347 3.43311359600597 5.96481758842903 0.194523005781456 0.998637897899759 0.15728
0.1573 4.1266208731967 3.60812127939176 6.11923509480728 0.215512769342857 0.989827062120609 0.15729
0.15731 4.14720134542937 4.21249729558125 6.18674783603142 0.243142493530705 1.00312207630896 0.1573
0.15732 4.10281751960413 3.81277622724984 6.14098829364996 0.220172681992242 1.04499677147339 0.15731
0.15733 4.36549433099019 3.77841331774565 6.16716708854677 0.232491490258809 1.02999576715755 0.15732
0.15734 4.32272943960636 3.39285414019003 5.94632608126769 0.219449071721408 0.979170550377718 0.15733
0.15735 4.13113435960254 3.2045929301229 5.83540596211513 0.202966732988407 0.975579548997472 0.15734
0.15736 4.35935063107456 3.72900738451337 5.89836820393898 0.22755042499063 0.973120663107191 0.15735
0.15737 4.19689257301715 3.60404254205796 5.84655441563335 0.216400466364984 0.983419146345593 0.15736
0.15738 4.0616639305542 3.69867306848549 6.1128472699987 0.218564852141844 1.00797429615417 0.15737
0.15739 4.05049325448296 3.33253616728635 5.96445966233772 0.213333633115883 0.960855134521507 0.15738
0.1574 4.23809289907238 3.75621702848278 5.93125968189835 0.223949808852441 0.992134047276885 0.15739
0.15741 4.23799386883774 3.83393516360741 6.03365756211741 0.228995710261019 0.985702239821405 0.1574
0.15742 4.35705815524452 3.84821330737756 6.00547908660213 0.230994188569993 1.00921729052649 0.15741
0.15743 4.10893032583042 3.16484988247842 6.14718810837438 0.206862753262197 1.00082765303649 0.15742
0.15744 4.06510923612115 3.37925039882544 6.04314077103364 0.202540904448275 1.01497946048569 0.15743
0.15745 4.05857641911793 3.93106049231858 6.24418245594124 0.226055594529011 1.03004525879888 0.15744
0.15746 4.66967613067541 3.87004021593824 5.98480003267455 0.238215807515465 1.01631388078571 0.15745
0.15747 4.28003889040275 4.01708137636778 5.98557176280023 0.230478596095788 0.999681844729453 0.15746
0.15748 4.3034505346958 4.32212575584475 6.04858537154441 0.248868134652671 1.02051415433159 0.15747
0.15749 4.2843729099978 4.08468785568186 6.01082555620494 0.227487366092214 1.00562485539188 0.15748
0.1575 4.27780692011466 3.63155232660043 6.08460337017898 0.225877766271945 0.994591710149296 0.15749
0.15751 4.32984278156403 3.51759304590575 6.00111417770148 0.21747012466232 0.980257521056518 0.1575
0.15752 4.16463284320513 3.48923308575187 5.80910201330887 0.220215383529552 0.952733667856335 0.15751
0.15753 4.24334151383289 3.77600987125278 5.80057725435549 0.217593103521515 1.01258649620781 0.15752
0.15754 4.66486721628345 3.85896174268833 5.79569386436341 0.238651830560525 0.98267167540531 0.15753
0.15755 4.52506002608262 3.78700593364317 5.8895529084214 0.233125197177931 0.997354148544873 0.15754
0.15756 4.68186830572324 3.79988980254607 6.05846679545089 0.233798636612134 1.0417480518596 0.15755
0.15757 4.39584870058852 3.50001498686691 6.10969818214974 0.228826729244362 0.971686852520793 0.15756
0.15758 4.16717040649354 3.51212325177108 5.96267072683426 0.208613004908313 0.998800982333419 0.15757
0.15759 4.12986316148054 3.4293861527239 6.07564233236039 0.213499477980293 1.01080958271181 0.15758
0.1576 4.55248822611202 3.48837325502983 6.16003082356481 0.223438061642886 1.02272612180008 0.15759
0.15761 4.50651108990147 4.02229684234992 6.05143052577992 0.239148837948863 1.01192877126768 0.1576
0.15762 4.29398685920575 3.84701615460165 6.03979345944897 0.227777673204709 1.00691164979405 0.15761
0.15763 4.40296043514585 3.62565362270916 6.18968662299338 0.222256066187217 1.02341987174497 0.15762
0.15764 4.13849154432637 3.55577904842391 5.99760303367484 0.21701260295923 0.987327531311327 0.15763
0.15765 4.14057188649833 3.40615901637451 6.06638442624772 0.21337828629463 0.993565336275828 0.15764
0.15766 4.40188409907851 3.54761574631624 5.86721770648072 0.21750522289879 1.00361663636487 0.15765
0.15767 4.16585073782721 3.50140405686171 5.87734073015902 0.214628523399855 0.974055502263438 0.15766
0.15768 4.22755318458285 3.4900115690625 5.94646045487485 0.215942959573523 0.979463484159676 0.15767
0.15769 4.23123505595199 3.50975118529973 5.89107274922252 0.218326525374868 0.980307295983009 0.15768
0.1577 4.52761238608758 3.49922430561935 5.93639019824513 0.217469562924211 0.995004139568342 0.15769
0.15771 4.21346544418484 3.52353389003363 6.0655378032422 0.212544752782602 1.00956102322654 0.1577
0.15772 4.0432193183292 3.4983343804042 6.05001555705183 0.207441843842199 0.9889509884346 0.15771
0.15773 4.06783400863207 3.02883243977846 5.7104386633832 0.201564089599547 0.964689057739425 0.15772
0.15774 4.44077948575476 3.72009484704428 5.67696247042235 0.232781716735955 0.954453742031721 0.15773
0.15775 4.57385924943682 3.64425740698871 5.83179565268344 0.229951637455874 0.991442539683451 0.15774
0.15776 4.64600636867104 3.64816910011761 5.86338633699449 0.230474594858008 0.993484561748125 0.15775
0.15777 4.40753551116164 3.51517960891842 5.83924146817019 0.226021355399641 0.953153965467454 0.15776
0.15778 4.57337603945094 3.70196789645804 5.81803521616623 0.234414678670225 0.973126987268172 0.15777
0.15779 4.6453123232185 3.58182139760648 5.62946846685533 0.231417351539816 0.982733805173939 0.15778
0.1578 4.40620714552452 3.46162696075733 5.7537395315784 0.221624663643876 0.970333903656222 0.15779
0.15781 4.51426798832162 3.55823722307984 5.9835154284053 0.221062877690399 1.00242399149119 0.1578
0.15782 4.49101170185266 3.44240420916507 5.83675353500151 0.229607992929869 0.971086385530141 0.15781
0.15783 4.58473843394042 3.55479311321395 6.01331174311104 0.227379284295981 1.02548727448997 0.15782
0.15784 4.26855048490879 3.68519904217978 5.91518796490579 0.221003482867883 0.979431343346941 0.15783
0.15785 4.20490543667605 3.38919409741662 6.10001087481257 0.210909188870414 1.00350542803986 0.15784
0.15786 4.47281184274745 3.42393304695895 5.97211568225024 0.226204089805041 0.993667875692935 0.15785
0.15787 4.21619810898056 3.38218060220565 6.25136952135375 0.213617826199669 1.01332356113154 0.15786
0.15788 4.1531084154779 3.44539429253522 5.99945780741039 0.208067985398661 0.983064468018047 0.15787
0.15789 4.03131759940056 3.69683920339562 5.82958207559113 0.217577998133581 0.967119704298892 0.15788
0.1579 4.26845493475081 3.8035642849535 5.68785360928266 0.227431602315787 0.973583277240594 0.15789
0.15791 4.27224889261355 3.71952136757524 5.66957211437665 0.227930580283093 0.956074049883061 0.1579
0.15792 4.52257854214107 3.68107681446822 5.7364269047211 0.232552575713809 0.964477609262107 0.15791
0.15793 4.3144305321991 3.58210537902023 5.77964173651572 0.213161616365062 0.983478567890532 0.15792
0.15794 3.94870826809921 3.35315354709099 6.09269496861378 0.206714944402287 0.977990128386781 0.15793
0.15795 4.10830680284043 3.80495308469777 5.91603943340521 0.218968474200334 0.980016671627394 0.15794
0.15796 4.16659298680485 3.64681163246418 5.88412296613597 0.222928545078751 0.961272834708154 0.15795
0.15797 4.43816720872955 3.31595000041104 5.74828844291216 0.224347258313313 0.963597273274291 0.15796
0.15798 4.5092257887158 3.50139191086476 5.85769467718161 0.221135005491756 1.00034743953811 0.15797
0.15799 4.21968776121727 3.26422220039977 5.98645028355141 0.211266234421117 0.981155758362028 0.15798
0.158 4.16644669947658 3.61859193087941 6.10506270926408 0.214383650225246 1.00203909601482 0.15799
0.15801 4.19122374614629 3.66437771037774 5.98461858928236 0.218250824399058 0.983096774330211 0.158
0.15802 4.40762550804279 3.71818502057219 6.01007252915851 0.23021091314113 1.00011587455477 0.15801
0.15803 4.34488525900149 3.86070195630449 5.94335709879055 0.231181557199918 0.985475268560095 0.15802
0.15804 4.10722655915698 3.63953556908047 5.88475261796143 0.215582890740682 0.994047554453698 0.15803
0.15805 4.35804669577601 3.60109827432747 5.8453827395073 0.227049524976531 0.972543291562736 0.15804
0.15806 4.35703527802095 3.52954687001198 5.9349284287079 0.214249904125996 0.99501601881479 0.15805
0.15807 4.14977610548147 3.77959745991548 5.7718433012139 0.220684091871744 0.971460670137827 0.15806
0.15808 4.25757219875106 3.58071927506722 6.04354829989776 0.222553083746121 0.999036285621907 0.15807
0.15809 4.14898490085627 3.45445833147637 6.0853189997916 0.208079913686575 1.00004033407315 0.15808
0.1581 4.31763837356109 3.8157884694453 6.05135386382524 0.222763239772436 1.02080972878457 0.15809
0.15811 4.2439527875536 3.98024566355549 5.81775302903906 0.232101417824436 0.992193274421727 0.1581
0.15812 4.43620338424666 4.12148092353554 5.82741424275998 0.241685051757483 1.00831534045094 0.15811
0.15813 4.33473171152849 3.85566140390091 5.78302768820604 0.237861470763356 0.966999082827975 0.15812
0.15814 4.2068946164548 3.6086431557317 5.85202329860549 0.217267726648041 0.96961267678198 0.15813
0.15815 4.21546103444206 3.42761220123497 6.04932124960881 0.204025904784253 1.00358748693089 0.15814
0.15816 4.43274694031411 3.47408384749073 5.94885565339559 0.216358218165603 0.993397004663614 0.15815
0.15817 4.52553359969369 3.92329768796925 5.90578547644493 0.236087614138651 0.996507023337749 0.15816
0.15818 4.11340430579691 3.65392928386906 5.90404730839983 0.224470888195481 0.979869698438958 0.15817
0.15819 4.05929673104694 3.68343308523777 5.90383174351781 0.211027057902063 0.954989738954162 0.15818
0.1582 4.00743543928986 3.54473346101656 5.77464413142107 0.21459901458724 0.961811701278255 0.15819
0.15821 4.24630822585826 3.62427532306884 5.89265333339625 0.215489819968599 0.997271634295542 0.1582
0.15822 4.1970468473063 3.59602344087578 5.76310845509834 0.218733845589789 0.950040852994953 0.15821
0.15823 4.45588342543398 3.63897485361192 5.99789259510383 0.222382981078561 1.00975612458834 0.15822
0.15824 4.07574604417738 3.79715433710068 5.84975591407736 0.227019396670671 0.950570105076836 0.15823
0.15825 4.22042231611221 3.69720933214195 5.90454224877 0.226935950631979 0.96999004882334 0.15824
0.15826 4.16127712531967 3.28174720403948 6.09665211287074 0.202703648676007 1.00363480266715 0.15825
0.15827 3.84365937963897 3.1546046894946 6.16702265247849 0.201198352159416 1.00036709875542 0.15826
0.15828 4.45489501444017 3.4111510490767 6.2846843304135 0.217580738812469 1.05722523820334 0.15827
0.15829 4.35210965702938 3.48854401673385 6.1078016447886 0.221956581050971 0.996839772876369 0.15828
0.1583 4.52010726824501 3.56541765151164 5.99461278313013 0.228367925533825 1.00242011952244 0.15829
0.15831 4.48512086015154 3.66432936720566 5.92344913787705 0.228441873520781 0.97959379793314 0.1583
0.15832 4.60594817115062 3.49613386812912 5.63519828052795 0.219432773360493 0.965981717174528 0.15831
0.15833 4.4807186897825 3.38377677337936 5.66638601021098 0.218658473055194 0.963917943072644 0.15832
0.15834 4.75403724170407 3.86766734612494 5.79355941070037 0.234779937194924 0.992477380174908 0.15833
0.15835 4.1474310909664 3.7905383479591 5.7676405409851 0.226737187031877 0.959613628802343 0.15834
0.15836 4.21579154126616 3.95933463155699 5.81309516877702 0.230883082654623 0.960529635541708 0.15835
0.15837 4.20936198985557 3.498001678474 5.70876457589391 0.210452028569307 0.978398480331408 0.15836
0.15838 4.21243321521262 3.45633379792191 6.01753755743231 0.219052565582664 0.994454289044925 0.15837
0.15839 4.38626433683888 3.62379674564222 6.17664574856416 0.231243631840198 1.03936488783636 0.15838
0.1584 4.40047361240647 3.67536624634239 6.05938005156228 0.224103889236891 0.995717914721328 0.15839
0.15841 4.36845824286696 3.48913945880899 5.96979166494736 0.218927648412438 0.98829724734958 0.1584
0.15842 4.00447997899407 3.46018616785534 6.04038461494926 0.20607434356352 0.985776045011866 0.15841
0.15843 3.92133753754595 3.59752527535174 5.91150329589637 0.216223238136946 0.961477031796015 0.15842
0.15844 4.32394418164651 3.73773790440394 5.9898724187047 0.224412374880371 1.01136275207342 0.15843
0.15845 4.29674791513471 3.75619523293713 5.87748403753426 0.22418317365535 0.998826270460535 0.15844
0.15846 4.62470048280102 3.84631594051009 5.96068405282583 0.236707982300645 0.992237336938243 0.15845
0.15847 4.4521776045675 3.64251729287471 5.56263522173331 0.22761792424409 0.950326981807058 0.15846
0.15848 3.99069495023738 3.49625674411218 5.70809035934615 0.208976521184624 0.949860480206246 0.15847
0.15849 4.28919528810736 3.49002344573442 5.91441348146882 0.219336390384687 0.99508271873612 0.15848
0.1585 4.48584074545806 3.80749287680743 6.00305286392229 0.239068136303648 1.00747397057938 0.15849
0.15851 4.59031915629555 3.39516337378003 6.06487284321711 0.222664938671158 1.01652690824832 0.1585
0.15852 4.55611171751801 3.59254677698836 6.02169738852881 0.222118718850537 0.984913498875859 0.15851
0.15853 4.60707540250933 3.60689504406193 6.03272962622219 0.234164328249795 1.01998798514331 0.15852
0.15854 4.7393039488846 3.71714286311635 5.91505698102862 0.240308764440364 1.00898082209533 0.15853
0.15855 4.47560148591946 3.42003522208265 6.00016273430814 0.226392283039449 1.01388641048237 0.15854
0.15856 4.67501238738401 3.49707699806829 6.05758130987562 0.228422778771407 1.01947568417828 0.15855
0.15857 4.43684128778885 3.39082549785825 5.99407897398971 0.212631242062565 1.00208545430636 0.15856
0.15858 4.25165895901958 3.39660024119802 5.83914718514519 0.219822749778893 0.990165582325639 0.15857
0.15859 4.42580721673472 3.42137409590961 5.69510419657709 0.23053777530856 0.944057251123538 0.15858
0.1586 4.51589273470448 3.27213601799523 5.92781779408453 0.228252016334938 0.968388204178729 0.15859
0.15861 4.50729307887363 3.39786696814482 5.89701624071579 0.22108943747907 0.973542485038895 0.1586
0.15862 4.27481435636916 3.49643559266978 5.8783286191602 0.219400541647804 0.993058419177934 0.15861
0.15863 4.12937225844037 3.6075426056444 6.05154593964089 0.216281083606068 0.984714737711987 0.15862
0.15864 4.24689257607453 3.76971918406628 6.0050079514231 0.218755827999204 0.997005225173419 0.15863
0.15865 4.5136883360281 3.98996075509271 5.80054296009061 0.233710496288692 0.987689810200173 0.15864
0.15866 4.27069309002681 3.89925795761745 5.86992398821568 0.229849113133615 0.963452723164252 0.15865
0.15867 4.25852075251621 3.70472034240727 6.08944489257141 0.222285652508321 1.01421960619386 0.15866
0.15868 4.24889616080219 3.49866169557703 5.91484217302505 0.212216075176281 0.964020321394515 0.15867
0.15869 4.20765316210994 3.91011955733987 6.07918541307445 0.232389673511902 1.01455557991127 0.15868
0.1587 4.07181854336864 3.55832347335297 6.21921126443118 0.211535385572349 1.02268738640677 0.15869
0.15871 4.25796606770991 3.52680252441532 6.20652340963794 0.21892351795323 1.01574656135872 0.1587
0.15872 4.25809392851902 3.78177346577662 6.11623047052057 0.225830952283418 1.0000214727491 0.15871
0.15873 4.34835018552252 3.7166334811478 5.99902558554352 0.222817787156979 1.00185974466976 0.15872
0.15874 4.37825715267794 3.37625151556063 5.89342560755449 0.222013384071808 0.979491757205395 0.15873
0.15875 4.15940061087795 3.56747162486257 5.76876281876925 0.220513108072207 0.978703111011221 0.15874
0.15876 4.38941970041555 3.34985205355437 5.93477137284428 0.208877470655168 0.985868334864591 0.15875
0.15877 4.35537327035027 3.63011055199821 5.67632899262021 0.220301769412437 0.974691959944866 0.15876
0.15878 4.65134054399151 3.92625305995947 5.93981404717508 0.249929858930412 0.983931401140969 0.15877
0.15879 4.41356443305186 3.83924294455674 6.03641424829425 0.22782970513732 1.01857495189031 0.15878
0.1588 4.38171198809352 4.0725370653402 6.18950144529547 0.238486833472042 1.03234947035798 0.15879
0.15881 4.34595802826306 3.7247839598685 5.98440962362317 0.228895313205301 0.996271652013939 0.1588
0.15882 4.18152774614594 3.48058277465131 6.08048782083236 0.210134269625461 1.02241836378264 0.15881
0.15883 4.48338749807348 3.54297643505992 5.84310154879392 0.226560548850823 1.01343520121364 0.15882
0.15884 4.59219524552904 3.67175470638976 5.88310263477052 0.231054041282539 0.979202034181009 0.15883
0.15885 4.46696912501808 3.69779731337487 5.88788887651994 0.225340525187034 0.999131139835624 0.15884
0.15886 4.24391094920395 3.6273544546833 5.95236965201792 0.231633397771058 0.982492347206903 0.15885
0.15887 4.14203221227453 3.61984697923507 6.13683395973733 0.217976919471373 1.00423616091471 0.15886
0.15888 3.85192385208152 3.46052304976645 5.83993473146816 0.193653012967346 0.969614704664011 0.15887
0.15889 4.33753761545738 3.92282136935414 5.9058407403102 0.235624498032499 0.977896895688205 0.15888
0.1589 4.44805968009574 4.12447706829709 5.75185119159738 0.243171564255403 0.969070474694492 0.15889
0.15891 4.51236151487716 3.89240200026556 5.87115361476865 0.228812563953577 0.993841953521153 0.1589
0.15892 4.59981794676385 3.52785136698045 5.96771255466319 0.224174049156892 1.01477129300526 0.15891
0.15893 4.59850884860895 3.64638616733619 6.12567695342573 0.233692298026085 1.0099164835673 0.15892
0.15894 4.11957444317499 3.71665398151335 6.08513945400365 0.219741704256816 0.984744212520529 0.15893
0.15895 3.98398444921319 3.6490595011386 6.05057057176201 0.20920451513639 1.00678603596745 0.15894
0.15896 3.96910625874534 3.62046441193953 6.06693620565253 0.219626606839022 0.978836371194074 0.15895
0.15897 4.40033354395724 3.57361996302691 6.31516031401258 0.223873858199254 1.03028318285802 0.15896
0.15898 4.30255967859497 3.6860984919658 6.16205605180611 0.217937422553324 1.02792445841145 0.15897
0.15899 4.2369659312198 3.75776977048113 6.21174491447191 0.21923147154907 1.04985477444694 0.15898
0.159 4.08928927835617 3.68771012048116 5.96601747037423 0.218802008953917 1.00507519891042 0.15899
0.15901 4.10195344103463 3.53989016995941 5.91357167414866 0.210683945605607 0.962738856047117 0.159
0.15902 4.34940268000166 3.87994978290753 5.88300414099097 0.230547505774637 0.977093851153009 0.15901
0.15903 4.61600140535096 4.09779181546648 5.86660587892818 0.241660368164941 1.00178826902922 0.15902
0.15904 4.6532389877979 3.41422489339225 5.92285062235245 0.223884502394238 1.01076548534771 0.15903
0.15905 4.28958206656123 3.36664657885791 6.01239732408682 0.213949339663633 0.977445273293922 0.15904
0.15906 4.25317250763729 3.47019684375016 6.05085188675088 0.214058245942031 0.979226178122945 0.15905
0.15907 4.37844998945854 3.80513870269938 5.99610763516675 0.223525625810689 1.02145842815625 0.15906
0.15908 4.57586465878088 3.91936905970896 6.0360934351959 0.246283788861127 1.01936429280771 0.15907
0.15909 4.57081983819999 3.56209700957835 6.23424503871439 0.231109746916971 1.01932260806798 0.15908
0.1591 4.49851576959845 3.5131616964753 6.12416524129502 0.217051554733222 1.01059797080415 0.15909
0.15911 4.37774872865114 3.78664910987971 5.80500023596681 0.225707743459691 0.977001829600626 0.1591
0.15912 4.22308689341421 3.54118369435974 5.89215772620861 0.217140515482119 0.996040327307209 0.15911
0.15913 4.40142145202492 3.96744289597604 5.97931876838981 0.229668980337507 1.01429514493494 0.15912
0.15914 4.52296796058279 3.92082738751583 5.91444091365645 0.243156967000112 0.974570547910084 0.15913
0.15915 4.62217535437682 3.79043617783726 6.20784312008804 0.236130725823908 1.01917837721502 0.15914
0.15916 4.33204738872854 3.68340849958508 6.02953881419928 0.218509564301694 1.03403706551173 0.15915
0.15917 4.23010507531644 3.63037140012978 6.06750607643746 0.216615081925229 0.994465733861702 0.15916
0.15918 4.19692526270111 3.39305865377155 6.20515230121393 0.21862624329191 1.03112322123166 0.15917
0.15919 4.32194456101058 3.72766544035255 6.1643465717585 0.22576129116369 1.00595289263298 0.15918
0.1592 4.69561318692764 3.7255578232935 5.9941971535663 0.242588327113736 1.00381760155364 0.15919
0.15921 4.35513210345606 3.82400068505316 6.0112551710046 0.237996824608177 1.00065829381944 0.1592
0.15922 4.46734557430797 3.59813345734342 6.06138858889768 0.220464684001905 1.02427551262437 0.15921
0.15923 4.4342460394155 3.50471927912897 6.06556902745077 0.228417997418991 0.98640078730354 0.15922
0.15924 4.56963485080701 3.71363650901618 5.88917570252992 0.227418357735636 1.01227421320306 0.15923
0.15925 4.32606025605838 3.76358221464493 5.80950507363074 0.225940227132123 0.993131899331948 0.15924
0.15926 4.2443659633386 3.30811985986199 5.93871768576108 0.204676744246052 0.9932750660112 0.15925
0.15927 4.32512573139481 3.54155098582671 5.90136100458662 0.214205835239307 0.984610350154455 0.15926
0.15928 4.40410159399481 3.68285456457994 5.94251302213032 0.242769961103937 0.972321935096829 0.15927
0.15929 4.44498382115639 3.44297276719184 6.1064912459474 0.223794558829688 1.01548924105215 0.15928
0.1593 4.32652501954016 3.714721017643 5.95954943657466 0.221043728960593 0.9971244942529 0.15929
0.15931 4.22655086390625 3.73943295815259 5.82007903195879 0.225373933645558 0.98325656003574 0.1593
0.15932 4.36378495618332 3.3502493620133 5.98156378184738 0.215026066909352 0.981727939818029 0.15931
0.15933 4.23165898095577 3.62386800343066 6.05692482622003 0.215634449132241 1.01299945246998 0.15932
0.15934 4.35866197515552 3.8553937073564 6.0172428827764 0.238867120686458 1.00994075223967 0.15933
0.15935 4.43589494645387 4.01657581044516 5.9799877030003 0.236437733682876 1.00074914161611 0.15934
0.15936 4.11338584516288 3.66705335194108 5.94256765647413 0.211182438607584 0.992602380987325 0.15935
0.15937 4.02763084098143 3.28241249823771 6.05682415535579 0.209223050429852 0.956738424978301 0.15936
0.15938 4.25496091869128 3.30987804286326 6.03302966517695 0.214778144810818 1.01340071618619 0.15937
0.15939 4.54379797206015 3.54290097009189 6.05399341071908 0.23181011762316 1.02468387826955 0.15938
0.1594 4.67890361944166 3.56872347937258 6.10072027415773 0.230320134063268 1.04073083333047 0.15939
0.15941 4.49098798908033 3.77967210230406 5.76038604008145 0.237275882083585 0.965298791809627 0.1594
0.15942 4.09509396660637 3.44789287782435 5.78998193828113 0.21319643174071 0.965449328857545 0.15941
0.15943 4.5589325748216 3.75308122096817 5.76496307648471 0.228341138462851 0.978307705707662 0.15942
0.15944 4.72091204804478 3.70924487453876 5.86486207252153 0.251212169934144 0.98173976612777 0.15943
0.15945 4.79910023085182 3.65873898517111 5.80591691857606 0.235109983949844 1.01283116770144 0.15944
0.15946 4.69448322060516 3.58739103706644 5.99451956207454 0.227149901958091 1.02759827710643 0.15945
0.15947 4.77378534497209 3.63528291220392 5.80343764045021 0.244107218952932 0.9883280157061 0.15946
0.15948 4.40187577944892 3.8469723846129 5.96543320048368 0.234907851686052 0.992540403192204 0.15947
0.15949 4.08469371304648 3.49971498609342 6.09374343952417 0.214524944784688 1.00657867560834 0.15948
0.1595 4.38548632841632 3.59600277191944 6.16688659102261 0.223909733235126 1.0315657740241 0.15949
0.15951 4.31288432875304 3.63808029699337 5.99868764088749 0.219990444088019 0.98912762288115 0.1595
0.15952 4.36041831438273 3.77484662498635 5.984053790247 0.224372174039184 1.01940742172597 0.15951
0.15953 4.41702145753514 3.67993014388281 6.00264946128826 0.224728206305849 0.985071514432791 0.15952
0.15954 4.23310287315619 3.80950941346392 6.17368815377515 0.224151818910195 1.01293561396014 0.15953
0.15955 4.30644570979412 3.89201674222782 6.16831531624939 0.23010639870161 1.03686446063968 0.15954
0.15956 4.44534475296366 4.05252119119752 6.10660557470258 0.239472076297918 1.0192663516441 0.15955
0.15957 4.50171207152814 3.95892889987379 6.14137285715825 0.234012834983491 1.03441313408185 0.15956
0.15958 4.41890751083256 3.96279091402193 5.88336651970117 0.229534011746948 0.99539145620853 0.15957
0.15959 4.13344735729878 3.57354569995307 5.86415851648066 0.211336112777357 0.979697580401576 0.15958
0.1596 4.04041384609408 3.52978270420821 6.00102368149375 0.212482655663484 1.00260472922124 0.15959
0.15961 4.14310620155794 3.411261840808 6.10781589387752 0.212901809360781 0.989076579027782 0.1596
0.15962 4.54592374561071 3.54750713641909 5.96349571177676 0.237626225251155 0.986700314336079 0.15961
0.15963 4.55216225245099 3.72284507633499 6.09177214889973 0.22890904804822 1.03931300935948 0.15962
0.15964 4.5958005031229 3.54193437991029 6.05000050131451 0.231098107343698 1.01882183537362 0.15963
0.15965 4.59846874760628 3.48583773899773 5.73336861977185 0.232318177461788 0.96150192913801 0.15964
0.15966 4.46493487460106 3.66735059811618 5.85129536445227 0.227194722659997 0.978458902090852 0.15965
0.15967 4.37260297078099 3.56797505078962 5.87991563944494 0.223893798145778 0.985158538630721 0.15966
0.15968 4.74131781098565 3.83270038217083 6.14533188612788 0.250282555209661 1.02976610883648 0.15967
0.15969 4.66865997775643 3.76165503348314 6.09398210800175 0.23405551154914 1.02589328030682 0.15968
0.1597 4.6168552190604 3.74753906671673 5.94248319555054 0.234655085957827 1.01544962644812 0.15969
0.15971 4.04482187470548 3.46999827127244 6.05437096090333 0.212704087895565 0.993181020171878 0.1597
0.15972 4.1303750915855 3.69756185722702 6.09730801868203 0.221471758847738 0.993238721430806 0.15971
0.15973 4.17835453448869 3.61990242301814 6.1486889310253 0.209034738102707 1.0244868454087 0.15972
0.15974 4.51081950899088 3.74011796186854 6.21680097982545 0.226716606979456 1.02406112874247 0.15973
0.15975 4.51013390271591 3.83876750708706 6.07914082313006 0.233680076367622 1.02272452187531 0.15974
0.15976 4.39292267867077 3.72922564531771 5.83985548079081 0.23064138635287 1.00409156733703 0.15975
0.15977 4.34598096077049 3.59826268691974 6.09368706807693 0.215948741441835 0.999592001077136 0.15976
0.15978 4.46497753344029 3.81007175097375 6.0080891988234 0.234924680890991 0.994811883536496 0.15977
0.15979 4.40997607924417 3.98619638945909 5.94033176068296 0.234085215278974 1.02015986896524 0.15978
0.1598 4.2718663000572 3.83274382501676 5.99839947449475 0.226932684762944 1.00401392635312 0.15979
0.15981 4.22159631257557 3.54779581057288 6.18857220599532 0.213671278629476 1.01536197891049 0.1598
0.15982 4.06192791621286 3.50929867990635 6.24460011668695 0.210282781347008 1.00695834742182 0.15981
0.15983 4.28315892314823 3.9650494133869 6.15422188880892 0.240769244861597 1.01404866261818 0.15982
0.15984 4.10822068064517 3.96549308785984 5.99559032362951 0.227963841702159 0.9818380625732 0.15983
0.15985 4.1316279522564 3.73771869364924 5.77941613654124 0.222241718259191 0.972379024048365 0.15984
0.15986 4.38095192304659 3.8060193229064 5.70584936044081 0.229385149703693 0.967117908275132 0.15985
0.15987 4.0831968979434 3.68639910768209 5.59856677104253 0.21258127136112 0.946543707165128 0.15986
0.15988 4.39006450575928 3.90450326269794 5.63963093387981 0.232375745914459 0.957083825348241 0.15987
0.15989 4.38340566244816 3.74705381172084 5.72066735566839 0.229380207142812 0.965404096058007 0.15988
0.1599 4.41205512967943 3.87373163183203 5.91498687411983 0.229664995185833 1.00394947614842 0.15989
0.15991 4.37495253895695 3.9859670075177 5.9913563550431 0.235216495539181 0.987038444652771 0.1599
0.15992 3.93629272729674 3.63371439315588 6.00429095941832 0.210268491665158 0.98059418351019 0.15991
0.15993 3.93187293921231 3.00500439667176 6.17785272729069 0.1871905613346 1.01070574891576 0.15992
0.15994 4.29230650870945 3.56383655164121 6.18919337908219 0.219119576823778 1.02462325212403 0.15993
0.15995 4.49842519471482 3.81705672885349 6.08723585700327 0.234535060020739 1.02812934866284 0.15994
0.15996 4.26414259823613 3.72192502493964 6.12247011977488 0.223385618387919 0.993899131193607 0.15995
0.15997 4.24938759651794 3.37003534030556 5.85935962503706 0.219943884767086 0.968553378572404 0.15996
0.15998 4.18936294980761 3.38943456466027 5.90007564706953 0.201722562242727 0.992560822324725 0.15997
0.15999 4.8296631797376 3.79681453303133 5.72142664564313 0.250071521071491 0.976256797015472 0.15998
0.16 4.37680059237928 3.68080950963766 5.71450564437307 0.231795300451257 0.941648204485099 0.15999
0.16001 4.30130493702905 3.61644905097073 5.67880567546902 0.220319996635321 0.967891650807628 0.16
0.16002 3.91541228941196 3.61551501509611 6.02067964929547 0.21240619621658 0.976124623749038 0.16001
0.16003 3.88370051355553 3.83126900588817 5.97203064552566 0.219681967127763 0.9506282317675 0.16002
0.16004 4.0601742962058 3.94672018691356 5.78320025874154 0.222222484878382 0.985183929896505 0.16003
0.16005 4.20701280529074 3.8278030371588 5.95658265552598 0.2216375200209 1.02023616207644 0.16004
0.16006 4.18660378206124 3.6522494645056 5.89543639200688 0.215334250597466 1.00215704014548 0.16005
0.16007 4.2375987358239 3.73139699812581 5.89745213536048 0.222803683799906 0.98569383330153 0.16006
0.16008 4.29908848832921 3.64893649467533 6.0305690536269 0.225984867309874 0.984996863832101 0.16007
0.16009 4.26247857546502 3.60679616165257 5.92206635236736 0.224394698324066 0.989812239282983 0.16008
0.1601 4.187708760045 3.57458891014995 5.74850961038216 0.20828525628417 0.990681321048347 0.16009
0.16011 4.006643897914 3.77939044106288 5.88404558695027 0.216253195411402 0.98598954002806 0.1601
0.16012 4.08622395532323 3.75692091996671 5.87868631230358 0.224687614795641 0.98154417722337 0.16011
0.16013 4.13223675567574 3.73342631252896 5.78763299757476 0.220709120958677 0.978320246637758 0.16012
0.16014 4.47344654769685 3.5772772793757 5.85885190668335 0.224281156681051 0.979894237871382 0.16013
0.16015 4.53142553382234 3.59113841181618 5.8425265473439 0.232237836049992 0.972384882351579 0.16014
0.16016 4.57426140806113 3.51374871097334 5.91294770909291 0.218350830555215 1.01403620841082 0.16015
0.16017 4.6153021724533 3.73666825266956 5.67493112234184 0.238529435430457 0.961118003427962 0.16016
0.16018 4.54371409899384 3.73124036773163 5.81542398456028 0.226984734319349 0.989485640730454 0.16017
0.16019 4.30594099280972 3.62878798421203 6.06201255658158 0.222297725172699 1.00988557072799 0.16018
0.1602 4.48050163136998 3.3930685010704 6.05242470569498 0.219607097382668 0.99542776876194 0.16019
0.16021 4.39952188987644 3.64226675692173 6.11098476997832 0.231968486128891 1.01736940390855 0.1602
0.16022 4.4283400125174 3.85906444703596 5.8972460496083 0.234915600631633 0.983508495195116 0.16021
0.16023 4.47015993750861 3.67015793441454 5.84819334269615 0.223083102189075 1.00126838901322 0.16022
0.16024 4.64449819433356 3.63038841610273 6.12666081222354 0.235891194914275 0.98458816575602 0.16023
0.16025 4.39894154968381 3.63766875734079 5.848903186135 0.219564218482501 0.98270723576559 0.16024
0.16026 4.20498114169626 3.47923525384046 5.74994796889645 0.213157417366884 0.960311795264396 0.16025
0.16027 4.12592654754365 3.84102756633074 5.81489064120787 0.22010850109533 0.988020464278829 0.16026
0.16028 4.38425548565469 3.40205381885866 6.00727993908319 0.218668463366528 0.998823383194584 0.16027
0.16029 4.24922459759325 3.66963636988521 5.96379766684073 0.220243808557443 0.996618627853201 0.16028
0.1603 4.58008127950599 3.65844483517509 5.89318724770009 0.235610159730763 0.985470180880281 0.16029
0.16031 4.08689415527048 3.36410312638994 5.89273621032622 0.209844339078284 0.975604615761996 0.1603
0.16032 4.08469455592115 3.7246697446119 5.9437710531541 0.227457170938078 0.996227592320029 0.16031
0.16033 4.12935137314087 3.70225492463578 6.0690083684685 0.222892239478694 0.97832033273319 0.16032
0.16034 3.99809857628643 3.82641163339873 6.17129439258964 0.218245441726472 1.00859220881569 0.16033
0.16035 4.16346121313629 3.71038725474897 6.11760867167097 0.222394201755156 0.970033084442588 0.16034
0.16036 4.14075718980098 3.46591728213695 5.77733302059614 0.212489952758656 0.961650403081915 0.16035
0.16037 4.34359755072258 3.60863927554241 5.90925471404118 0.225708324130636 0.971263058959663 0.16036
0.16038 4.48750286961497 3.68286534841067 5.82624070095213 0.237129797014959 0.962841411378875 0.16037
0.16039 4.44762207440464 3.67820203283401 5.97582753435244 0.222880929293238 1.00514360581972 0.16038
0.1604 4.30279434266877 3.81087933938499 5.8617133409409 0.233080950206136 0.961890462253466 0.16039
0.16041 4.37225449091371 3.72616650618924 5.74688970421084 0.230011495189521 0.957538526002818 0.1604
0.16042 4.14407030673083 3.42976335963694 5.77022219054541 0.213676782228193 0.968189002214568 0.16041
0.16043 4.3459700652933 3.81345023545156 5.94967581600286 0.228803454367552 0.994234415137071 0.16042
0.16044 4.43061706567587 3.97699133068455 6.08790503578963 0.228958609080801 1.01790719088556 0.16043
0.16045 4.48439739789507 3.95050281250943 6.16957085179348 0.235424576869055 1.02170487088194 0.16044
0.16046 4.38061821064149 3.81236953953393 6.10605281093647 0.228369983686988 1.03088897602494 0.16045
0.16047 4.47262760250417 3.82447422951739 6.01558384073569 0.228625775291545 0.995582537330278 0.16046
0.16048 4.28059384666392 4.00464801306428 5.67363371225066 0.232937246528814 0.984026829638065 0.16047
0.16049 4.51585505005469 3.83400880659421 5.93833971064582 0.235331618888066 1.01537980183064 0.16048
0.1605 4.33217258343756 3.55922245622001 5.98275902109127 0.224437930286066 0.990947816374393 0.16049
0.16051 4.12968011362563 3.58461337608563 6.04315207462377 0.215044221723283 0.99708329530776 0.1605
0.16052 4.21593983697307 3.96604497585074 5.9404008843303 0.229216939457654 0.992322987474554 0.16051
0.16053 4.09443551062567 3.75889100237821 5.93160667203227 0.216136144835603 0.986347362643703 0.16052
0.16054 4.17953254851258 3.85610011770584 5.85398177725465 0.227133516743701 0.997241562370845 0.16053
0.16055 4.20300455850961 3.8845479931777 5.99975233086507 0.222660768570753 1.01172329042546 0.16054
0.16056 4.11370014036863 3.74291777359984 6.07344432297017 0.225745227153932 1.00358251550599 0.16055
0.16057 4.25203112184432 3.89278940646172 5.87520336127625 0.228004999130148 0.995950984670109 0.16056
0.16058 4.22314276501658 3.87194912234491 5.86968828662365 0.227232217152403 1.01096219878559 0.16057
0.16059 4.15527021375363 3.96093227533506 5.91518337827322 0.2266636552969 0.974522751883201 0.16058
0.1606 4.34602607204014 3.7582208814677 6.05638614044856 0.23184159750052 0.99615740477226 0.16059
0.16061 4.31237299289957 3.46722148132208 6.19791596190626 0.210550461627454 1.02812833570375 0.1606
0.16062 4.01015930537119 3.46005573236174 6.08331643304145 0.206570866458359 0.984772058828882 0.16061
0.16063 4.34263099981715 3.61717255060579 6.16004872276759 0.226386215882231 1.01431584926572 0.16062
0.16064 4.25136486165957 3.92404323896732 6.12294583667498 0.231457239987032 1.01444233880474 0.16063
0.16065 4.30443068695227 3.50439395270342 6.05236605757521 0.219879217315569 0.989727264332215 0.16064
0.16066 4.40844331778552 3.52613041528837 5.92315639988721 0.220636022447241 0.991512794483649 0.16065
0.16067 4.35559601528943 3.70995548882626 5.94904876134461 0.225418365897289 0.981796437829238 0.16066
0.16068 4.48838884909149 3.52972139676417 5.85588198498278 0.226702897448838 0.980786354239212 0.16067
0.16069 4.61917003703263 3.46243749961881 5.83509831149964 0.229566151446791 0.977245660083003 0.16068
0.1607 4.49087675233105 3.50760478364189 5.95409293598319 0.22792337446832 0.988004083352063 0.16069
0.16071 4.15813432928258 3.66136863124273 5.94045115522657 0.21615990719254 0.986663695833357 0.1607
0.16072 4.3962221225174 3.91971978755772 6.228139016182 0.237366235293668 1.02074131692984 0.16071
0.16073 4.32422378625367 4.23933559980114 5.97933361000338 0.240921417915982 0.98982822683804 0.16072
0.16074 4.34427807123091 3.71899207200731 5.93103802188863 0.221530295363282 1.00924029838157 0.16073
0.16075 4.17987052884457 4.07150656774184 5.81061804140946 0.233813704921844 0.980391105362408 0.16074
0.16076 4.23100617931568 3.92347067480902 5.78565010756888 0.222409734575621 0.972845737050843 0.16075
0.16077 3.9997087316179 4.05411950061283 5.99926534736863 0.223411250068428 0.993911824468908 0.16076
0.16078 4.28114464537613 4.11735726651437 6.04309184721217 0.243000917223911 1.02344256830843 0.16077
0.16079 4.30668254590698 3.85442879082374 5.98730805250364 0.225046661543434 1.01920953537231 0.16078
0.1608 3.98896849973072 3.82917605387222 6.06807615919688 0.211663224404363 1.02080351169693 0.16079
0.16081 4.30075223224134 4.07934536086 5.85241817060007 0.240996176551616 1.00197490385968 0.1608
0.16082 4.4329044180533 4.31948422254611 5.87826023242727 0.248655910935749 0.977446692656981 0.16081
0.16083 4.3988876090949 3.58092751971803 6.05599322999877 0.222902180743423 1.01639210628826 0.16082
0.16084 4.52101729655162 3.46331473621598 6.06200585853069 0.221612460188228 1.0024578287093 0.16083
0.16085 4.57566934106865 3.13420752225298 5.90308927446353 0.216020712159228 0.990448100279114 0.16084
0.16086 4.62736843837679 3.59888278232278 5.89120654045232 0.228847931303527 0.989566419204862 0.16085
0.16087 4.75161024819647 3.63181011705798 5.7227570605702 0.237499015426258 0.968949350345992 0.16086
0.16088 4.67709159306412 3.87609379196129 5.88795256730095 0.238909590738262 0.995022910892597 0.16087
0.16089 4.01356959913735 3.73091474825981 6.17739180167889 0.213551495300615 1.01675928487667 0.16088
0.1609 4.07857888739283 3.68371154913861 5.98855668407234 0.218032554278706 1.01299237896171 0.16089
0.16091 4.34251428109848 3.88402928645474 5.90657715177109 0.234015758676231 0.999434172092803 0.1609
0.16092 4.7067911965444 3.96575375328241 5.75529934663748 0.239735331497198 0.983550317143074 0.16091
0.16093 4.26550146832877 3.68050867863415 5.95640566706312 0.221744521578536 0.973008623073569 0.16092
0.16094 4.14500710219112 3.6229363935596 5.96066479493506 0.215469149041092 0.98978224418803 0.16093
0.16095 3.94283825110934 3.23371714452301 6.03200004811818 0.204195790301097 0.97203594929408 0.16094
0.16096 4.16833970940862 3.8150188246492 5.99511556414272 0.222338866224601 1.0168494778473 0.16095
0.16097 4.07296911225008 3.82007667210012 5.94349901393308 0.225670041021206 0.96121505123561 0.16096
0.16098 4.50102569507859 3.9890040221968 6.14200963825904 0.233619853924244 1.03994791585417 0.16097
0.16099 4.07385046416438 3.61799495378465 5.98040852374475 0.210914599451226 0.981135044173517 0.16098
0.161 4.30862336032887 3.64668767904578 5.9886340390643 0.225926459221221 1.00356715558037 0.16099
0.16101 4.27661140226291 3.86850746605102 6.1348687433596 0.224855424157945 1.00544366938665 0.161
0.16102 4.32128786336126 3.99299860149202 6.05757477038856 0.233203346288397 0.995254106600521 0.16101
0.16103 4.47639169714455 3.69985931845608 6.08495891221399 0.223851470281098 0.999005241217393 0.16102
0.16104 4.49844788534516 3.91218906190828 6.11553318185857 0.230574150033673 1.03928182887412 0.16103
0.16105 4.22257613682981 3.62851773112249 6.01353786141036 0.222272593696386 0.981220034970246 0.16104
0.16106 4.32879382404697 3.68561505998354 5.87707400739004 0.228596355881776 0.96859774978427 0.16105
0.16107 4.13731650732166 3.74792442462427 6.055371880677 0.2085889056295 1.01240325048347 0.16106
0.16108 4.31692412205331 3.77485049041707 5.9076602433206 0.230311406083275 0.984201674328768 0.16107
0.16109 4.65013014049269 3.68593551359121 5.84838846331418 0.236763281608179 0.969920125238328 0.16108
0.1611 4.65969309183634 3.74904879827673 5.76208422232691 0.23226206990362 0.985629038931198 0.16109
0.16111 4.73864681825499 3.65440652086043 5.90893237910769 0.243366757194209 0.981425728856198 0.1611
0.16112 4.80359987592926 4.02780422815354 5.97441981688315 0.257545349796577 0.986456515779767 0.16111
0.16113 4.48772525540284 3.71130480772488 6.09225960202966 0.2247832499408 1.02807056828135 0.16112
0.16114 4.38520211633651 3.68375055302115 6.02342090276132 0.221040298550714 1.02025605700261 0.16113
0.16115 4.33463328858375 3.84647422325581 5.90289722248173 0.235338255039828 1.00126772477584 0.16114
0.16116 4.39561811936843 3.87410676208256 5.96721964811037 0.235482781142735 1.00292316023611 0.16115
0.16117 4.52829126316474 3.86298445205457 5.94505800816355 0.235239912744005 1.01954936439679 0.16116
0.16118 4.24828759262148 3.51121858232613 5.98487660475735 0.210463756992633 0.99337161669449 0.16117
0.16119 4.29733119963328 3.63858040017939 5.99733742340608 0.212753710038847 1.00238750538038 0.16118
0.1612 4.18075300661367 3.63303391767301 5.75697788875643 0.217902662402988 0.94399372006745 0.16119
0.16121 4.41914087625317 3.84750964677903 5.90590372035928 0.231971227114522 0.995812114607682 0.1612
0.16122 4.32323764600517 3.93043985162183 6.03175332287323 0.234398012421635 1.02744142375464 0.16121
0.16123 4.17979733688044 3.89389133989056 6.18591709558164 0.233452559703127 1.00671149289038 0.16122
0.16124 3.94357447075667 3.36277571704627 6.43890595949714 0.200107219170515 1.03530406042393 0.16123
0.16125 4.13117885249084 4.03975980428635 6.15374808997157 0.235358001239908 1.03054641577521 0.16124
0.16126 4.50605248574865 3.88414013762369 6.08135333372354 0.240119843725225 1.03600882182615 0.16125
0.16127 4.34211360178754 3.81092367071778 6.01622782968708 0.227378003152405 0.992101505754061 0.16126
0.16128 4.36149739967276 3.75503567596297 6.00357030201305 0.232905259011378 0.979786389069664 0.16127
0.16129 4.28700672199711 4.27254775315289 6.02452642058198 0.239115792712635 1.01238011590958 0.16128
0.1613 4.24903088708801 3.69782784993739 5.91212179203609 0.229346967392887 0.944497567865508 0.16129
0.16131 4.15872709350656 4.11752845759199 5.83526086370422 0.238918033574264 0.959017528659932 0.1613
0.16132 4.17380195148119 3.89721726870383 5.90688900343916 0.228590080607328 0.989246617373149 0.16131
0.16133 4.32884019090115 3.85514651898645 5.77631591073562 0.226347087644881 0.940812212870045 0.16132
0.16134 4.3112540310476 3.79485090980133 5.92868873770423 0.232283876811509 1.01712514350115 0.16133
0.16135 4.13266708366903 3.80438776852486 6.16810435569725 0.21544701166245 1.01429663170866 0.16134
0.16136 4.3408008512797 3.63243149722419 6.22467828284759 0.224967718338218 1.01893111118545 0.16135
0.16137 4.6240213153869 3.70091777822214 6.03348298645679 0.233752487726866 1.02045861689091 0.16136
0.16138 4.74593820256472 3.74685042488014 6.12258833988522 0.248162616292009 1.03587074800953 0.16137
0.16139 4.39110173370897 3.67441172598249 5.99815720855428 0.229270797271986 0.972175698862629 0.16138
0.1614 4.36398211161609 3.92658943664145 6.06457493763846 0.225154686650818 1.01803069258458 0.16139
0.16141 4.24301795978089 3.91674141322138 6.15926996654714 0.23661625222973 1.01654101379314 0.1614
0.16142 4.77501449962908 4.259728712094 6.1739655145925 0.254372510764945 1.06022293534794 0.16141
0.16143 4.68283476330065 4.14119462160481 5.92957733820452 0.251779819760317 0.986661476551366 0.16142
0.16144 4.09656592786066 3.69270643480796 5.70532046864352 0.21515700471913 0.941145274825704 0.16143
0.16145 4.30264994253904 3.66127032603745 5.73179559381521 0.22087227863196 0.95963672195189 0.16144
0.16146 4.58158759981901 3.54809765229683 5.77449057562984 0.228971572652922 0.981507978489707 0.16145
0.16147 4.54865092014189 3.68919631488521 6.21748946383139 0.232391914931281 1.04072460471799 0.16146
0.16148 4.17234630299235 3.81094234905647 6.24651942852179 0.227394670391022 1.03177150789853 0.16147
0.16149 4.12320670584908 4.07660784448937 5.88279539991173 0.228314803583735 0.985955455450584 0.16148
0.1615 3.91367717652785 3.92176130420437 5.93414582713594 0.211925249748538 0.990262903042673 0.16149
0.16151 4.37239139764919 4.19388916252176 6.0237327471257 0.239358970342701 1.04539905573574 0.1615
0.16152 4.61776331080238 3.63109659474947 6.35313036492791 0.229765870194744 1.0402371030592 0.16151
0.16153 4.1164056240884 3.73679418888608 6.26653292893812 0.225163320501177 1.01315169729164 0.16152
0.16154 4.25355656747408 3.74474418036643 6.13583254692843 0.228606249560425 1.02459784940591 0.16153
0.16155 4.46501019381421 3.78815878641332 5.81601448326979 0.233982761978217 0.992474463049187 0.16154
0.16156 4.48935361323082 3.88223342583786 5.91787829854956 0.241319642267239 0.975612088390383 0.16155
0.16157 4.42139838382595 3.74273372402478 5.95373745796496 0.228538872941376 0.991151963165348 0.16156
0.16158 4.64037391490948 4.01609200517688 5.91821913642998 0.246909382941665 0.983108232724882 0.16157
0.16159 4.77425374628547 3.7692051797967 5.81767321317108 0.24343628904139 0.982417461614911 0.16158
0.1616 4.20591302410483 3.50122863704035 5.99743054797249 0.213681861259032 0.992692114024363 0.16159
0.16161 4.32174155259246 3.90866115137885 5.96600788857269 0.233195387933789 1.01358818632535 0.1616
0.16162 4.30333312532189 3.64738260953145 6.08171315854126 0.233321862304346 1.00155680022994 0.16161
0.16163 4.36616737728987 3.89282074811011 6.12250196208225 0.238006782125369 1.01741276035391 0.16162
0.16164 4.33290541608425 4.13692199310421 5.78063671673104 0.24025874710085 0.967481867999215 0.16163
0.16165 4.17555388283132 3.58790564130467 5.86621657630478 0.219861333722457 0.999200789844457 0.16164
0.16166 4.16608426643475 3.55498941957774 5.86396374149915 0.217269756043207 0.974750537219543 0.16165
0.16167 4.11353607912803 3.28073453326541 5.99670826502303 0.201793224973987 0.989727395624089 0.16166
0.16168 4.32956681228989 3.44459190225601 5.9485445060549 0.215636666474654 0.983481637111133 0.16167
0.16169 4.43838639054601 3.65501377376143 6.00253360276981 0.221319685216715 0.991501467980583 0.16168
0.1617 3.7493241025109 3.30856764521422 5.75308375262968 0.20144055880036 0.953853862758927 0.16169
0.16171 4.10791549719164 3.57123887181109 5.46199465074854 0.215555305432727 0.909492701865966 0.1617
0.16172 4.08762093141314 3.98842625064023 5.51020627561265 0.226722826350691 0.943182391220413 0.16171
0.16173 4.25545504289931 3.77559057541675 5.66296971556329 0.224922710288086 0.947169496155231 0.16172
0.16174 4.20582515451088 3.61270113374831 5.79914685280654 0.218064032009017 0.967699708585111 0.16173
0.16175 4.25177994953969 3.72329178327812 5.80925174105978 0.22739910550609 0.978918506495347 0.16174
0.16176 4.31915921115596 3.34594665317276 5.86162704419489 0.21831244421291 0.979911664384536 0.16175
0.16177 4.62749431417221 3.99604477905025 5.82302192226798 0.234456924427101 0.988101096777626 0.16176
0.16178 4.36082132342787 3.75368014093423 6.00889779254514 0.226636526122618 0.998619434125844 0.16177
0.16179 4.25383128425633 3.67419709504471 5.8548771269725 0.224007219928306 1.007365925896 0.16178
0.1618 4.65106084068235 3.45355767930699 6.12030050278578 0.230334894915058 1.0170440372937 0.16179
0.16181 4.39715807937382 3.44875402021972 5.95945886961993 0.219872056986425 0.984065585288417 0.1618
0.16182 4.37260436525014 3.70028060594303 5.714130737595 0.226078602512189 0.980038947107411 0.16181
0.16183 4.48208416892429 3.5121073294711 5.76891049644944 0.222425964958401 0.962044822748936 0.16182
0.16184 4.42086739975208 3.6004495841537 5.62973638316824 0.22337358720924 0.949792027656924 0.16183
0.16185 4.63817388930789 3.57568794398609 5.77498481523127 0.237269485265651 0.981934789924047 0.16184
0.16186 4.67678716020326 3.39811214604221 5.56298131873091 0.226915633682951 0.974803169601702 0.16185
0.16187 4.2982387438417 3.74168831401947 5.79360853471772 0.225753211455394 0.962536548241029 0.16186
0.16188 3.99507975355932 3.77811639605873 5.84832119523999 0.214184125154783 0.973647815530205 0.16187
0.16189 3.90562892240498 3.76120169867617 5.90535705060828 0.209791266827653 0.960133378251189 0.16188
0.1619 4.24227954318857 3.53482686155429 5.93454684740496 0.213501741898017 0.994180774377626 0.16189
0.16191 4.28273612031311 3.54788743993077 6.18270936549622 0.227909667327549 1.00099851113686 0.1619
0.16192 4.41333859953014 3.65421763721195 5.98551597636326 0.224327374071374 0.976159001985172 0.16191
0.16193 3.96788794666561 3.38866302272371 5.92800173278126 0.20808074541381 0.957902609000368 0.16192
0.16194 4.00828530689623 3.48696762926978 5.98396855225196 0.211673909937141 0.977705017408166 0.16193
0.16195 4.17675420207418 3.75325307214638 5.48089586271695 0.223618882870405 0.954977967624272 0.16194
0.16196 4.21800190333042 3.4807605034667 5.7348591964047 0.216114324265013 0.932322817250149 0.16195
0.16197 4.26158752465711 3.6697886514351 5.48527861110187 0.219888601187853 0.937892788265601 0.16196
0.16198 4.66716998179295 3.49723763462243 5.54549858659282 0.229937696609261 0.957145935288974 0.16197
0.16199 4.26512210329752 3.35720187187504 5.63658351111308 0.210519938197568 0.93636654435096 0.16198
0.162 4.16119215064792 3.40594417241601 5.74614980613546 0.213302453461511 0.944793958723995 0.16199
0.16201 4.48308550646631 3.51400094345691 5.85721552101389 0.215397020132052 0.99008222244619 0.162
0.16202 4.36834152122052 3.5423134377544 5.82528460898701 0.227262374224585 0.967348045532368 0.16201
0.16203 4.44775235818142 3.54574471951623 6.10198283921827 0.221771752244146 1.02217375693825 0.16202
0.16204 4.48043049914623 3.76561700507411 6.02078884755808 0.236535042171917 1.03522267778605 0.16203
0.16205 4.2639284797048 3.63223073694246 6.15516697341662 0.216831344686616 1.0172922424062 0.16204
0.16206 4.37865049907474 3.73607993741519 6.05273456644161 0.23399980541561 0.998729938012901 0.16205
0.16207 4.13934675734305 3.67210756698261 5.70739240617353 0.216402125925693 0.954241104494771 0.16206
0.16208 4.15896228010795 3.7146172418175 5.71828826414905 0.218695306479136 0.958436517206055 0.16207
0.16209 4.10476098231704 3.77224237743859 5.64092252858877 0.216265273045985 0.950511348364946 0.16208
0.1621 4.20133075680834 3.91899066364573 5.50576258171965 0.232659842889127 0.936014056469744 0.16209
0.16211 4.26997454660367 3.95964785356235 5.83575856871923 0.227136475440713 0.990659923095869 0.1621
0.16212 4.21617183662032 3.65705299800949 5.94112823164409 0.214043937052372 0.986394334859777 0.16211
0.16213 4.0035586031734 3.76261159588512 5.94916563361751 0.229200519530264 0.973621029127107 0.16212
0.16214 4.1650403995669 3.66598294410872 5.9784042336482 0.214986925985395 0.981104162393557 0.16213
0.16215 4.14243210748842 3.43349838803785 6.06320460738785 0.209137845747611 0.984355382518949 0.16214
0.16216 4.76223653364566 3.99647238485439 5.9523522251267 0.244981570505438 1.01387846450457 0.16215
0.16217 4.48002870023194 3.83915152852753 5.83913704246425 0.236807004203149 1.00474576080122 0.16216
0.16218 4.03131254051391 3.73852575295727 5.87713657144118 0.215124431277139 0.984666052716829 0.16217
0.16219 4.02681886833155 3.89502393641691 5.92464886670632 0.220639554301311 0.965682543547458 0.16218
0.1622 4.22704787663308 3.7231561716328 5.69448640727404 0.225938515608225 0.950801067386484 0.16219
0.16221 4.23805567319851 3.51252335495758 5.94101874348147 0.209830724126295 0.983989406749838 0.1622
0.16222 4.33519086081437 3.44462326626659 5.95951846463314 0.219153924763352 0.969351200821164 0.16221
0.16223 4.0528655171107 3.56224498944755 5.77966345300784 0.216696032596812 0.968561803531173 0.16222
0.16224 4.12599830693346 3.43227507565521 5.87275418385772 0.205542155425978 0.960480479608604 0.16223
0.16225 4.31433624527434 3.36566378451223 5.8671224803813 0.217995486880846 0.994483916575496 0.16224
0.16226 4.33642060819303 3.46104538722906 5.89420884649859 0.207888287617857 1.00037173063463 0.16225
0.16227 4.43466789899964 3.76489311846977 6.06328692696172 0.232145741205079 1.02793105201733 0.16226
0.16228 4.01991069223175 3.87018466482979 6.07238483516158 0.223823496755801 0.988828690188393 0.16227
0.16229 4.08552012728964 3.69730709445345 5.98292805219835 0.211337285002954 0.982831041164743 0.16228
0.1623 4.75108511634108 4.25925701188852 5.76983349277863 0.263869246668645 0.977359189714185 0.16229
0.16231 4.47101653094222 3.98636185172043 5.94827144299505 0.228675930181574 0.999160460115963 0.1623
0.16232 4.28595939434359 3.48633508904038 5.89344345324349 0.219437308950504 0.994590351122593 0.16231
0.16233 4.08825250032695 3.20509551642493 6.01543101761494 0.203169004864087 0.980258949507582 0.16232
0.16234 4.24152965416182 3.14221950562577 5.99115357493234 0.212683366322087 0.977019198739274 0.16233
0.16235 4.25596813975199 3.81409395704019 5.86138224372357 0.222233894167961 0.9970035470809 0.16234
0.16236 4.40569264125529 4.10883143089894 5.69309259064228 0.239476526941831 0.992086505497937 0.16235
0.16237 4.40084359655063 3.57680613264252 5.86724654057633 0.226882134234086 0.985632776614293 0.16236
0.16238 4.16315482171617 3.31905171710203 5.91874183542035 0.213761060573893 0.987064924700954 0.16237
0.16239 4.26357987106539 3.47028134374447 5.84656654759317 0.218490523921278 0.973006660593631 0.16238
0.1624 4.25531260519738 3.74974068842768 5.74014760807601 0.228408884076826 0.945688106376276 0.16239
0.16241 4.59396303241476 4.19523359224244 5.77058351811881 0.247854014286336 0.997831547227377 0.1624
0.16242 4.40610827026149 3.68221639298129 5.99922296046455 0.230145279356514 0.990389377545879 0.16241
0.16243 4.25147953081562 3.841820666398 5.94584044231875 0.221296002544465 0.991888538757769 0.16242
0.16244 4.0597647903847 3.63396310697633 5.9078134432998 0.21592004735555 0.975542412108827 0.16243
0.16245 4.37035601876565 3.67806407472633 5.93535562799037 0.225139223603658 1.00105340569252 0.16244
0.16246 4.05499431317552 3.7463831886205 5.81063417580379 0.21757822150814 0.969529352094823 0.16245
0.16247 3.85042182055798 3.71096519421656 5.8586167246947 0.208371617337048 0.963920170971467 0.16246
0.16248 4.16080850070692 3.89091230461527 5.65422735077519 0.23215873873552 0.931173134519722 0.16247
0.16249 4.44985720168361 3.96095049326916 5.41560799302726 0.238072437979231 0.933202929241848 0.16248
0.1625 4.42648067088617 3.7032735782153 5.86030710471717 0.228003821125697 0.997720705078674 0.16249
0.16251 4.3812989971499 3.52159699515578 5.8318905786871 0.225169954049275 0.961337767203876 0.1625
0.16252 4.18490028252461 3.44096835217983 5.92926100853173 0.211751764421622 1.01123432087614 0.16251
0.16253 4.10072084655117 3.39001870537414 5.99714485556766 0.213903731508771 0.980975546173182 0.16252
0.16254 4.28746261262229 3.61558133627823 5.99125452716005 0.222068606985111 0.999353052267588 0.16253
0.16255 4.34262714922687 3.701134433558 6.0373615305432 0.219828785302125 0.996133099906866 0.16254
0.16256 4.44067909936783 3.27991757646903 6.16707490095469 0.219659323921681 1.03892394957433 0.16255
0.16257 4.5185671005896 3.25641591497205 6.06610322071743 0.221873335152876 1.00367558305836 0.16256
0.16258 4.51212266658116 3.83437417894562 6.01427310340097 0.238745987950889 1.00456001897847 0.16257
0.16259 4.1726782737766 3.59240697080642 5.95623402159293 0.226519084393437 0.993184882472033 0.16258
0.1626 4.54010352091678 3.71104562136653 5.76018686686753 0.221714434634217 0.983686593140599 0.16259
0.16261 3.95853970860486 3.69059743534277 5.87982835655939 0.212819624111242 0.98201442087343 0.1626
0.16262 4.32603566213979 4.01616225697747 5.68650568153356 0.233864267857942 0.954372763518265 0.16261
0.16263 4.30881288163005 3.83295859663268 5.75981783795793 0.227876897904219 0.990472467172987 0.16262
0.16264 4.09582512224637 3.74789091190941 5.73720816023632 0.220272086557085 0.95909164516782 0.16263
0.16265 4.30009579029503 3.52968436661671 5.8030098824614 0.221790112359441 0.944025123987152 0.16264
0.16266 4.0187661645897 3.81733357570373 5.86516872358825 0.227556291760812 0.95369665417625 0.16265
0.16267 4.26493736692542 3.91047734428927 5.93809185356484 0.223861034191543 0.978752381093061 0.16266
0.16268 4.31244353618352 3.76407872895107 5.88349366389851 0.227430230891568 0.980749744411139 0.16267
0.16269 4.52616663381476 3.7799897864261 5.89769026478 0.235440395344215 0.985255586223868 0.16268
0.1627 4.74036959732555 3.87221976466528 5.77811046761258 0.239820170531705 1.00160522225082 0.16269
0.16271 4.77703939943094 3.79117579907958 5.94490986307834 0.246146695644617 1.0067061037273 0.1627
0.16272 4.91669051386731 3.61739482469933 6.00195962376827 0.237322707482427 1.02244562053987 0.16271
0.16273 4.58625418754606 3.5409717004331 5.78352769597971 0.228317744916071 0.969872196625653 0.16272
0.16274 4.33604435997332 3.67624907731208 5.98032054778101 0.221219850435983 0.987285626906384 0.16273
0.16275 4.1555212527002 3.54944805331154 6.01646460217811 0.213136718979318 0.978914476829202 0.16274
0.16276 4.33424173396135 3.73340296055294 5.77452068005258 0.232026854643555 0.976528789588701 0.16275
0.16277 4.49550625812611 3.7025734765228 5.86636905470624 0.223491548389736 1.01269711045898 0.16276
0.16278 4.57973151399383 3.67139002607146 6.07761561390316 0.236235733508114 1.02612524397302 0.16277
0.16279 4.43260055780914 3.90605176944588 6.17911781689609 0.240903770853137 1.02831201622533 0.16278
0.1628 4.62657843923628 3.87509196588392 6.12754975683778 0.232853926569062 1.03410620753371 0.16279
0.16281 4.17883646593876 3.57832138008425 5.99000814205749 0.213409645930904 0.992267322233577 0.1628
0.16282 4.17677929103423 3.63372087667431 5.92569029394471 0.22805963654969 0.968765785696437 0.16281
0.16283 4.04046639238984 3.88767705827468 5.90987994850054 0.218629862433879 1.01393575227703 0.16282
0.16284 4.04761419274544 4.56271045188487 5.88967053469851 0.24435605533392 0.994978284622818 0.16283
0.16285 4.22532683559499 4.40717909551382 5.76804920709659 0.247905661253999 0.99129270879693 0.16284
0.16286 4.08930645507435 3.92737247934658 5.84692939399655 0.2259908008231 0.971086777501799 0.16285
0.16287 4.01023799106765 3.4264258421049 5.72258685077696 0.205034219094296 0.956951325744818 0.16286
0.16288 4.04820129246491 3.25121353586916 5.73226916569961 0.197459805221989 0.951458130163483 0.16287
0.16289 4.34816263025449 3.75621142376006 5.92651916598112 0.226662893631704 0.984392138958491 0.16288
0.1629 4.3576757438012 3.82274313647128 5.99635082017187 0.220317817943119 1.00128906994042 0.16289
0.16291 4.4019897616382 3.88421003775203 6.01905226532494 0.236646433018277 1.0134496873658 0.1629
0.16292 4.29232205732177 3.98038039371146 5.88884923831268 0.23251183311547 0.984441595174686 0.16291
0.16293 4.47526792453751 4.29342594472234 6.01343769109915 0.240022274081759 1.00660365252155 0.16292
0.16294 4.36691492621092 4.10518951793263 5.89090068997758 0.232183774778699 1.00678341473103 0.16293
0.16295 4.4437674375127 3.68840222529562 5.93808489306601 0.227450398043179 1.01602358011702 0.16294
0.16296 4.52997001639187 3.78199249187874 6.13073148942784 0.236556104530162 1.01721570219779 0.16295
0.16297 4.50895553349994 3.48174900040537 6.07376874205304 0.221335354291972 1.02345486527331 0.16296
0.16298 4.55681158420081 3.48540617448038 6.24886149689572 0.228831424744024 1.0062245462302 0.16297
0.16299 4.13654137656138 3.640743561438 6.04630501984442 0.211658194945968 1.00967498217495 0.16298
0.163 4.22866666604191 3.5762359932639 6.09060411736511 0.212847848433461 1.00546147515455 0.16299
0.16301 4.43557106666794 3.87494252419276 5.86730390501372 0.230985201393292 0.994537029831733 0.163
0.16302 4.13172970409375 4.27089045054509 5.83601561740676 0.241513362773468 0.979897981056954 0.16301
0.16303 4.36568374153657 3.92941624370567 5.86883512718385 0.227426711569495 0.992076674466174 0.16302
0.16304 4.49974926205517 3.96383584427645 5.91026361941541 0.238959544702755 0.99399102954963 0.16303
0.16305 4.74788629540974 3.79446433168157 5.75187077519849 0.237590689884775 0.974131080608005 0.16304
0.16306 4.52834090471585 3.89568703901002 5.90529748993207 0.240373179285532 0.992970737921797 0.16305
0.16307 4.38529285619683 3.9095893471187 6.10209898845707 0.231763616086792 1.02114783455678 0.16306
0.16308 4.39538756594189 3.87639246128863 6.0701747772292 0.228449200767499 1.01160923908783 0.16307
0.16309 4.20943730615104 3.59779353313968 6.12277245579793 0.21554508252869 1.0185474095486 0.16308
0.1631 3.99643621073108 3.93190528364141 6.01017413408542 0.227305421619887 0.976693804167769 0.16309
0.16311 4.29296146490271 3.92473775184063 5.99008406228914 0.235905551614184 0.983811335852244 0.1631
0.16312 4.31735477673752 3.95732455844101 5.84431825877996 0.233369665355843 0.994871825495847 0.16311
0.16313 4.59795003002083 3.74127698575316 5.70120188206818 0.241683418343037 0.973262866818712 0.16312
0.16314 4.66737852480915 4.0404766566836 5.59737264236712 0.24653206415539 0.953589304259063 0.16313
0.16315 4.51462949312747 3.76235661785892 5.81301492294137 0.227951125601974 1.00536154333883 0.16314
0.16316 4.45631776498945 3.75831352803882 5.98358373521889 0.233884286068412 1.01484287666553 0.16315
0.16317 4.19384727253117 3.71091574309577 6.13634525359604 0.224048658610719 1.02371641704195 0.16316
0.16318 4.32827542062816 3.66604732726793 6.189733993595 0.219696581581564 1.01315023709009 0.16317
0.16319 4.14256007635351 3.67388273097856 6.10175277202673 0.220802582851704 0.999990955171275 0.16318
0.1632 4.86780501718461 3.85774278227349 6.12881950393016 0.250935454130032 1.01501923501858 0.16319
0.16321 4.26953826816216 3.67812389468567 5.88250817918656 0.226618562642428 0.997007081919522 0.1632
0.16322 4.76696404068275 3.53525953882459 6.04843532964912 0.232236275533326 1.00728178611628 0.16321
0.16323 4.67766749624047 4.11115584658591 5.92490927496745 0.24885809363967 0.998216413284731 0.16322
0.16324 4.3093687231758 4.21722798347502 5.99614666075586 0.234505793748754 1.00676933556626 0.16323
0.16325 4.39379210697661 3.9974532766297 5.98041964681362 0.229999529754251 1.00455679361082 0.16324
0.16326 4.42511366366182 3.61803772061411 6.00343891931864 0.221318119684678 1.02696181767129 0.16325
0.16327 4.36025775207373 3.55984882475305 6.05860485016935 0.213997920805403 1.00157857035806 0.16326
0.16328 4.32163577681701 3.6883656159101 5.98432977577944 0.230808525421574 0.959867758036169 0.16327
0.16329 4.18100034831479 3.56600308696795 5.94971622525893 0.211002191203802 0.981703133860619 0.16328
0.1633 4.33422198310398 3.58587683813998 5.8853985145999 0.215583011286591 1.02491859646007 0.16329
0.16331 4.19164311419303 4.01624477193525 6.08209700643099 0.239001271897449 1.01848050545679 0.1633
0.16332 4.52121127626409 3.96856156550152 5.8901942191374 0.233027591054581 0.987823528660051 0.16331
0.16333 4.60090776624015 4.13062587249328 5.75179957092729 0.248341816195457 1.00318601713012 0.16332
0.16334 4.52885492462203 4.25698985035557 5.80024799562323 0.243171833661788 0.995843072856446 0.16333
0.16335 4.29300540371374 4.08531017150237 6.01417104580736 0.237919664112439 0.98798710910144 0.16334
0.16336 4.19326800490399 3.88890882620521 6.01623974309389 0.23380008056665 0.988220381974603 0.16335
0.16337 4.28013182813474 3.94770171559275 5.98401567024594 0.229465569229107 1.03796038563157 0.16336
0.16338 4.48325125921906 4.17410041303296 5.84048255533628 0.235511285357616 1.01072282347687 0.16337
0.16339 4.30767649417631 3.72947447340527 5.88645813687021 0.225533284542179 0.971919304243391 0.16338
0.1634 4.32581299094055 3.37751100136196 5.88141647464433 0.218355645072527 0.977185440218964 0.16339
0.16341 4.38627365045642 3.72204972058424 6.24630300556044 0.228053493373148 1.02943887231291 0.1634
0.16342 4.60504475098996 4.11916332996582 6.05152509261736 0.243254525243677 1.03010531553809 0.16341
0.16343 4.6096382327675 3.99499854440795 6.09038646881242 0.241458516087278 1.04257649498721 0.16342
0.16344 4.34333021893452 3.77490746599839 5.76141981202444 0.230498022723525 0.986207501579913 0.16343
0.16345 4.30064162731498 3.65770555890666 6.06635440373269 0.22838487512662 0.983088019768073 0.16344
0.16346 4.54711947630666 3.9713394016937 5.93135578764363 0.233393021969175 1.00735641814803 0.16345
0.16347 4.80549109832144 3.8580621771799 6.21365639924163 0.248295597268981 1.04790936477843 0.16346
0.16348 4.56876785975993 3.95970563421224 6.06421788370864 0.23449906790461 1.03841491565934 0.16347
0.16349 4.59658116985066 3.81068126439137 5.91207646599441 0.241857873239533 0.975155597172479 0.16348
0.1635 4.581883706952 3.62551168135652 5.85187522395449 0.230477236069288 0.989678617893349 0.16349
0.16351 4.66437940706456 3.61903812166885 6.1545416645812 0.235557826299317 1.02168126131825 0.1635
0.16352 4.70782183230004 3.75772164405223 6.08148538299507 0.23879921539593 1.01274620494555 0.16351
0.16353 4.68646930786472 3.89675495971909 5.968386908372 0.234073238969377 1.03328216716638 0.16352
0.16354 4.61312853024551 4.13465470586071 5.82006663667255 0.24603244445006 0.989759280523902 0.16353
0.16355 4.52204465598174 3.80325428726896 5.74626259847361 0.225734591686317 0.959486299218763 0.16354
0.16356 4.58246795338609 3.8638010691162 5.74182742825962 0.239936316225878 0.996169092788867 0.16355
0.16357 4.49664233595599 4.00318546388801 5.95997719913405 0.242397639774817 1.01276394338725 0.16356
0.16358 4.76327949246529 3.8682156388246 6.02398323944342 0.244068789854285 1.01231713419129 0.16357
0.16359 4.32637672340307 3.59823542844881 6.34113474073459 0.224811780313138 1.03171754583718 0.16358
0.1636 4.04060251608911 4.00623945820677 6.2633006479115 0.222162228877027 1.03506398478398 0.16359
0.16361 4.14699029320807 4.02956258646146 6.07053928494147 0.22904106244139 1.01603394668972 0.1636
0.16362 4.27356434509604 4.24745002494017 6.0808225644291 0.232948381246874 1.02137210952987 0.16361
0.16363 4.19597934198877 3.93964351535036 5.91600080963276 0.227688751699648 0.977355560973181 0.16362
0.16364 4.34512677747252 4.10558512367726 5.83589225895816 0.23014295040845 1.00401733851967 0.16363
0.16365 4.26886649139168 4.08667873020172 6.10023991747993 0.236833953040461 1.00955084484357 0.16364
0.16366 4.57338432611648 3.80571391590353 5.93801334191297 0.232384175445164 1.02547054243664 0.16365
0.16367 4.69813577257448 3.74678341659686 5.61978774190845 0.238188292365064 0.964941039005947 0.16366
0.16368 4.48997413594382 3.77212185384117 5.72543539977472 0.233661844271493 0.964453783733979 0.16367
0.16369 4.46178031220295 3.84405934888486 6.21905916414975 0.233854999027947 1.01689574489298 0.16368
0.1637 4.09684309111765 3.6432679319488 6.26007685446199 0.219258485714147 1.01480784165814 0.16369
0.16371 4.34239922603097 3.42759809265778 6.28049143505982 0.2124536873021 1.04152428769988 0.1637
0.16372 4.54503765766339 3.74413504487716 6.188366045763 0.225200801474265 1.04426253544739 0.16371
0.16373 4.67045305152952 4.2042175092771 5.82894030758959 0.254845418258158 0.995684959835291 0.16372
0.16374 4.57462304083877 3.70923358229864 5.81616812657731 0.224904593546522 0.987801293357023 0.16373
0.16375 4.52021762754232 4.07802733130521 5.90260405311102 0.242566812425595 0.991616089055621 0.16374
0.16376 4.88524516653024 4.24558791355385 5.76450111277306 0.264869118102779 0.988791712395764 0.16375
0.16377 4.67341164565947 3.74134341031626 5.86846674634097 0.23112564049016 1.00211243198625 0.16376
0.16378 4.38603662800437 3.74344982681972 5.96640403121875 0.228567109148099 1.00768663820715 0.16377
0.16379 4.1922498718311 3.79953150883045 5.98823666479953 0.221625049155866 1.00182902925965 0.16378
0.1638 4.34934963740495 4.03455122490554 6.00105744190885 0.233700932060914 1.01215556363086 0.16379
0.16381 4.19474024945634 3.92185515157535 6.07469575339627 0.234780538330413 1.00292573923253 0.1638
0.16382 4.19958155677562 3.83111022437151 6.19545122779951 0.232595668600726 1.01622563891508 0.16381
0.16383 4.37629544914079 3.92888997376037 6.18353353915106 0.230161125101961 1.04851822411494 0.16382
0.16384 4.41114842965205 3.91516533124941 6.17062958348597 0.22880583728416 1.03081563126831 0.16383
0.16385 4.40785647985686 3.99102028064834 5.76256658126394 0.240203526395459 0.984129949631768 0.16384
0.16386 4.02097545825342 4.03874597767913 5.99576677926763 0.217970480005154 1.02492345501004 0.16385
0.16387 3.80910208667176 3.88576060749674 6.3398931202279 0.223364392588421 1.01911013595107 0.16386
0.16388 4.28201322827196 4.03902033361474 6.27059877778119 0.234696998323018 1.0399860164586 0.16387
0.16389 4.20951099735418 3.80780098797187 6.15356845006121 0.219831514829868 1.01048954003917 0.16388
0.1639 4.20914030018275 3.82566844667481 6.061565025143 0.226719482690071 0.995659728044303 0.16389
0.16391 4.47024512141712 4.06908657495255 5.77023160509984 0.239021281434264 1.00229560207539 0.1639
0.16392 4.53574517043279 3.95419812997127 5.77167290549658 0.241768088602093 0.977208430078298 0.16391
0.16393 4.59848751082863 4.15693877038487 5.81088234560094 0.249496293043856 1.00047897722982 0.16392
0.16394 4.6891867013861 3.98419041544212 6.01652307281858 0.240483809199184 1.02272260777067 0.16393
0.16395 4.45158899034278 3.87169832598733 6.05700896008284 0.228562971246607 1.01991360344342 0.16394
0.16396 4.74753215119018 3.6138861424836 6.01012172213971 0.233231208186364 1.02250346464654 0.16395
0.16397 4.61212676515888 3.66114068409777 5.91484724548187 0.224548143091215 1.0157853059558 0.16396
0.16398 4.67951632332683 3.7458810683457 6.13826935049218 0.243529963544994 1.02611455232546 0.16397
0.16399 4.93691639175291 3.84426739111026 6.12054758029169 0.247636143874086 1.02522858524922 0.16398
0.164 4.67947143829279 3.57201980715345 6.21119587358801 0.230454213889321 1.03756949650531 0.16399
0.16401 4.67625422976553 3.8256164922117 6.03139899548056 0.23988348147812 0.998483399769422 0.164
0.16402 4.43487746689853 4.00763432483865 5.95979641771866 0.245206349035315 0.981015938827507 0.16401
0.16403 4.45964155258558 4.03344982913264 6.1008496065007 0.245722906449874 1.01262549304467 0.16402
0.16404 4.56170799471519 3.88264162792042 6.07561458384838 0.23889829372371 1.03106421880586 0.16403
0.16405 4.65969200342206 3.92735608131971 5.90386471821426 0.246934029304333 0.997760774324237 0.16404
0.16406 4.4872430187357 4.11962235446843 5.88887887755193 0.233391178173507 1.00265619153037 0.16405
0.16407 4.36948024180388 3.75809818217762 6.06090644144607 0.233365182783496 0.997862878666792 0.16406
0.16408 4.2700850799676 4.2506378164555 6.01465757507374 0.237815051664492 1.02498025504074 0.16407
0.16409 4.48281123438916 3.91006531544932 6.04245319741404 0.23752151916611 1.01556157778007 0.16408
0.1641 4.17164284970294 3.78549811657886 6.16992651699811 0.217247317260668 1.01391724450849 0.16409
0.16411 4.28125709218973 4.16045333450347 5.91457204589816 0.230638512421687 1.01789356567417 0.1641
0.16412 4.61210339824102 3.79093734492854 6.17998921419699 0.234187065976322 1.02296853085651 0.16411
0.16413 4.29074502318807 3.71865519259965 6.06509617170415 0.227958596233408 0.976733617614876 0.16412
0.16414 4.55943637663766 4.07462471220581 6.08211754200266 0.244157694120227 1.03049434419127 0.16413
0.16415 4.37405760873624 3.78411435476253 6.07296803122163 0.22105838364355 1.02530056124618 0.16414
0.16416 4.35907848696686 4.02596062076953 5.88664051694839 0.234986244039917 0.980292976655875 0.16415
0.16417 4.4086291682217 4.05259231376058 5.99423022109518 0.238441144681088 1.02629877792057 0.16416
0.16418 4.50928181359734 4.3014056627556 5.90398611506074 0.244375542786833 1.00101089611716 0.16417
0.16419 4.6126790537847 4.15767455198588 5.79657048611031 0.253210713668947 0.984032170598076 0.16418
0.1642 4.57978898700148 3.67548933972237 6.16327394016591 0.234098527379573 1.02917496512707 0.16419
0.16421 4.53444489352569 3.56644862577938 5.81031142603476 0.22220687892782 0.967504692907202 0.1642
0.16422 4.4835163597203 3.95705242736357 6.07101713594314 0.233967588445132 1.03155320730812 0.16421
0.16423 4.48490857316138 3.87162032382736 5.98494512709603 0.229373435690321 0.996876586481513 0.16422
0.16424 4.65044536349027 3.9632157860733 6.18357174337295 0.240978628367974 1.0646763679919 0.16423
0.16425 4.43638776617759 3.98750305593152 6.28360257039466 0.235650100628407 1.02706645616964 0.16424
0.16426 4.2859884088341 3.73396133645526 6.16294090106158 0.229353849989277 1.00933681918144 0.16425
0.16427 4.54013321743281 3.66630511959318 6.18698372646797 0.218832073893235 1.03789564804245 0.16426
0.16428 4.52986844269616 4.09719187928222 6.07553600274081 0.244140128917309 1.00848716691821 0.16427
0.16429 4.62890376878268 4.05399291840074 6.11961511166571 0.249207548411062 1.01539546166774 0.16428
0.1643 4.52708832872394 4.02963379171292 6.05354155455215 0.241431539603495 1.02387994676356 0.16429
0.16431 4.30053177670743 4.22392542521451 6.09976501497194 0.247874858351403 1.00639028688259 0.1643
0.16432 4.4850895091959 3.93578816730045 5.97919612371902 0.229326142959762 1.02459797832025 0.16431
0.16433 4.58643793436329 3.89189766681101 6.1015755461816 0.233420877158536 1.02992131770627 0.16432
0.16434 4.9076822482285 4.23333312084281 6.08456731606128 0.257829956327478 1.03750271869078 0.16433
0.16435 4.51070429974974 3.89694469188106 6.10508770123833 0.233255027009469 1.02915686014646 0.16434
0.16436 4.52462634882733 3.87979173920157 6.00710353979902 0.237554788834158 0.997353694418909 0.16435
0.16437 4.70668116507671 3.97745867639512 5.69016891723629 0.24479740054184 0.982387351110907 0.16436
0.16438 4.45525460439661 4.09775116264542 5.71535343781538 0.234031337428601 1.00212709339323 0.16437
0.16439 4.56763517255676 4.02221270775145 5.94076460402664 0.235879852112312 1.00004821229282 0.16438
0.1644 4.42195366051118 3.95114383062713 5.97944598043311 0.238883335357379 0.999059187972552 0.16439
0.16441 4.60086517058175 3.79787057306153 6.12306735063165 0.235787203078963 1.02219740244765 0.1644
0.16442 4.44269762005418 4.02593084999091 6.16763309739239 0.238731761404179 1.04345518482118 0.16441
0.16443 4.53732186111743 3.85405810786335 6.0646847664626 0.232194168332833 1.02447776115909 0.16442
0.16444 4.61131754140082 3.96844615270566 5.96878067243559 0.238601704286542 1.0047087507603 0.16443
0.16445 4.39237593234967 3.63568657679399 6.09834544170189 0.221738674817386 1.00330499950057 0.16444
0.16446 4.40204111661364 3.58329151063558 6.21367785906947 0.223429241289404 1.04304064562086 0.16445
0.16447 4.50358531961307 4.05227174082307 6.36880304064662 0.238218763045844 1.0616336224528 0.16446
0.16448 4.51528672361504 4.19887288954011 6.16827517473501 0.243198363302061 1.0462573697274 0.16447
0.16449 4.38472123074714 4.02698948506052 5.88149479924307 0.230783283689432 1.02315785484077 0.16448
0.1645 4.44017536258051 3.90747632850519 5.94964381442105 0.23390162438847 0.999233870816184 0.16449
0.16451 4.22095162611711 3.87423856117468 5.96455823215812 0.226197908334417 1.00514195000064 0.1645
0.16452 4.50908289292164 3.91664797020353 6.04679491515069 0.238955446130284 1.02132814288658 0.16451
0.16453 4.66404091056391 3.98192029396796 6.14219581723417 0.23600208741643 1.05095931715959 0.16452
0.16454 4.19763158323702 3.86688700727236 6.0261601873296 0.233769312225964 1.00073259945494 0.16453
0.16455 4.2798614645309 3.60554028222303 6.13770976993247 0.217211936188207 1.01851931533247 0.16454
0.16456 4.41928304245639 3.95280592601125 5.93161494252158 0.240217045840309 0.985428705374545 0.16455
0.16457 4.25064621093993 3.95163304258133 5.9890064390335 0.226185364851485 1.03128471728863 0.16456
0.16458 4.52146223649039 3.85847344415757 6.10700916359727 0.236678715699496 1.0165248740826 0.16457
0.16459 4.56103435800474 3.71860293653687 6.00374311376806 0.223642737642686 1.03387745345198 0.16458
0.1646 4.26732008146751 3.75267993248626 5.96184233889676 0.22537182937138 0.995205587283056 0.16459
0.16461 4.49174503123687 3.89012874356102 5.91284462655483 0.239471050445659 0.987959248736092 0.1646
0.16462 4.50415074340438 4.3003507437914 5.86998591330555 0.252698779805799 1.00301338528163 0.16461
0.16463 4.67918396558095 4.23895045586334 6.05559401796821 0.249774754190316 1.04255648635094 0.16462
0.16464 4.39349969296789 4.25429769348202 6.13206587341665 0.248461522783675 1.01825422735455 0.16463
0.16465 4.54907340155547 4.24365945529104 6.29448235062592 0.243271893905278 1.06325912520559 0.16464
0.16466 4.35772084568443 3.92701375824621 6.17366608571104 0.226491034653766 1.02508309936949 0.16465
0.16467 4.73657962396717 4.12926048204767 6.02441564160381 0.247268544601714 1.02062055128321 0.16466
0.16468 4.71787286081404 3.96042601303972 6.09542712653162 0.249249219094674 1.00705093740345 0.16467
0.16469 4.58422621412393 3.99540188233844 6.11267998488516 0.232591987422121 1.03990413169305 0.16468
0.1647 4.42881158449826 4.01433481467265 5.91506574401443 0.236521449742369 1.01489532129158 0.16469
0.16471 4.72652726532148 3.82814723851102 6.05102598412145 0.239763315632528 1.0199000107664 0.1647
0.16472 4.6689194693648 3.8474006086338 5.92478851126739 0.239108624893058 1.02397016530695 0.16471
0.16473 4.68864457983719 3.76216154220126 6.11004162916745 0.245899742142085 1.01961775768514 0.16472
0.16474 4.93822380191081 3.96254049743559 6.13560495027745 0.245322973811758 1.02152450415091 0.16473
0.16475 4.35731569264198 3.91641899034465 5.96385984740359 0.236155871389939 0.969953295379802 0.16474
0.16476 4.35428449082317 3.75132237565612 6.12567247518998 0.222377620295344 1.01902347549245 0.16475
0.16477 4.48221815315817 4.10420289571721 6.1603053474038 0.236548226688206 1.02735442221758 0.16476
0.16478 4.74668220910825 4.00617485349503 6.09881529195934 0.244816164526309 1.03552059925908 0.16477
0.16479 4.75153919157429 3.92253079398245 6.13527242371902 0.24013928467905 1.06420431069952 0.16478
0.1648 4.42658026906753 3.70882680277772 5.9481856937857 0.225664726802427 0.985155116357591 0.16479
0.16481 3.93042057057977 3.55022747420069 6.06739853985377 0.213578520202061 0.978541447505956 0.1648
0.16482 4.49065433927339 4.12126406401386 6.12968248989823 0.24096902657592 1.03886868963313 0.16481
0.16483 4.56120945682482 4.04313289579289 6.04356625484285 0.243649505726307 1.0277503029251 0.16482
0.16484 4.6545570223908 4.24138821825716 6.2244193839991 0.2580259455058 1.05326040149041 0.16483
0.16485 4.33715927488574 3.8575505562841 6.20022024625508 0.227367586852278 0.99479839259538 0.16484
0.16486 4.15002001713264 3.65687045889094 5.77090076630944 0.215060395586854 0.965924629201588 0.16485
0.16487 4.54031954413703 3.89234776812216 6.0710597456713 0.238962019572965 1.0193770960721 0.16486
0.16488 4.7357078106378 4.27753815485319 6.09529353928661 0.251998418765595 1.02744822690579 0.16487
0.16489 4.70358401690576 3.94386078710338 6.01600122858277 0.240313880607344 1.02976022429964 0.16488
0.1649 4.62112998165078 3.86297565093103 6.05006667753769 0.235130796429355 1.01491425942616 0.16489
0.16491 4.50057131723486 3.75329577425709 6.09534851627124 0.232735103492015 1.00487144147225 0.1649
0.16492 4.68433939291591 3.75034942472677 6.08275782626517 0.229863427813987 1.0282322983257 0.16491
0.16493 4.77402146856092 3.83970999569682 6.17652807795522 0.234986714538065 1.06392234469721 0.16492
0.16494 4.48079997397526 3.87589756102491 6.30366564677302 0.235079403902782 1.05839984314287 0.16493
0.16495 4.47902919844892 3.99509946487195 6.20270494855855 0.232361687188765 1.03071896256484 0.16494
0.16496 4.53252900100195 3.94882621892077 6.19923185662553 0.232333919130854 1.03521807014299 0.16495
0.16497 4.35727039411365 3.80666420129253 6.11822419977795 0.233882974016314 1.00265532924491 0.16496
0.16498 4.69163423217712 3.96507657428714 6.00072825456123 0.237971453045455 1.02943537603465 0.16497
0.16499 4.71909360127603 3.9877843410178 5.98880065968065 0.238967938601863 1.02196765711615 0.16498
0.165 4.29458164612535 3.80374998505302 6.10061184516283 0.223206136466903 1.02163463290025 0.16499
0.16501 4.2005219315626 3.98658802528506 6.18348607637401 0.235711167009193 1.01696467777272 0.165
0.16502 4.68792824957688 4.2667312882924 6.04915629692092 0.254535090731232 1.02373673254223 0.16501
0.16503 4.45368721752129 4.23988160703387 6.07883714053993 0.243547961951252 1.0261808374703 0.16502
0.16504 4.30218114095152 4.30804751190747 6.21913240560013 0.239095754168972 1.04257493959277 0.16503
0.16505 4.44541992559201 4.56719584208719 6.12709977071261 0.252050928782477 1.04955471335213 0.16504
0.16506 3.95667671977549 3.94868946256924 6.07353205337646 0.231797580752682 0.979028266239632 0.16505
0.16507 4.73050680995981 4.10354897856682 6.10554097705903 0.245141929404178 1.02964700499885 0.16506
0.16508 4.64513746466225 3.72104590262847 6.03170978858971 0.235969284014798 1.01977525227621 0.16507
0.16509 4.67315933577443 4.02434967258932 6.13967373991434 0.244045184143256 1.04511424303946 0.16508
0.1651 4.79258174887443 3.85211106739746 6.21145411533005 0.241609416290823 1.05220110297552 0.16509
0.16511 4.49243781727275 3.47850715939988 6.10166354497559 0.217820035007534 1.02375286934898 0.1651
0.16512 4.57648024985468 3.96453182431654 6.13611866165302 0.241800769558327 1.00858065188776 0.16511
0.16513 4.50866479615553 3.80590978151266 6.08252145988796 0.227851804886462 1.04502174527579 0.16512
0.16514 4.68188420973312 4.13991031060805 6.12888909437098 0.248633723680086 1.0237400026141 0.16513
0.16515 4.89831398992232 4.05010921863643 6.00250462455861 0.254540998707326 1.00979301370156 0.16514
0.16516 4.61423865537379 3.52215097925687 6.02894100262431 0.219916059187639 1.02334266059321 0.16515
0.16517 4.78277087353964 3.86882138835002 6.12110191618924 0.246726827130294 1.03736145260328 0.16516
0.16518 4.60078344538401 3.88175797358216 6.21976178979379 0.232861685602768 1.04243972201165 0.16517
0.16519 4.66592414449022 4.16919845716283 6.29039827703205 0.249235526896777 1.02992839844037 0.16518
0.1652 4.60040493823112 3.9395976903031 5.98616067955462 0.238249998013342 1.01381330197697 0.16519
0.16521 4.67996527818196 4.20078885362221 6.15714372108755 0.249475096231934 1.03932771661503 0.1652
0.16522 4.27889575685938 3.87306674766698 5.98781930295907 0.226912831412441 0.998746256795265 0.16521
0.16523 4.36635810974706 4.10191745200603 6.02670596837864 0.236197794163677 1.02198856872377 0.16522
0.16524 4.52215354851745 3.94077972710992 6.2670120871033 0.238076329482137 1.04208388530869 0.16523
0.16525 4.45057699208106 3.43166790435105 6.36237091935834 0.220386757631812 1.04545595439127 0.16524
0.16526 4.57089872830659 3.54959934892707 5.99710776665104 0.233633174278583 0.991945339734264 0.16525
0.16527 4.59601958771429 3.90076043227397 5.89921711882991 0.237063795537009 1.02534815182335 0.16526
0.16528 4.5859663271541 4.24443546116462 6.12689063366169 0.252050297154931 1.03374594114531 0.16527
0.16529 4.666941375512 4.21992338435953 6.1479342762096 0.246914422560662 1.06930729278747 0.16528
0.1653 4.7387975646587 4.35051586124846 5.75637673990302 0.252205104968277 1.00391728954135 0.16529
0.16531 4.365099307974 4.17589792376452 5.99516731086341 0.245888649285564 1.00596151557496 0.1653
0.16532 4.75301816760162 4.0778559380308 6.07388988801207 0.243290149489763 1.02515834974119 0.16531
0.16533 4.75566883007421 4.11281472271986 6.0059656855019 0.247101420002908 1.02491508710471 0.16532
0.16534 4.82949033897932 4.06725213377629 6.35382504807414 0.246861397924195 1.06404962388753 0.16533
0.16535 4.52844298672166 4.21555019391133 6.2667569707701 0.242813133291263 1.05714795081121 0.16534
0.16536 4.33939640607828 3.98110044148978 6.20454402006558 0.24169036641091 1.02924944816314 0.16535
0.16537 4.13133589436935 3.78989518933393 6.3444168004487 0.223102807262477 1.0259340033472 0.16536
0.16538 4.74882239078386 4.16618468129848 6.23697813165574 0.256977861253418 1.03781742880051 0.16537
0.16539 4.72763640526019 3.9880956694472 6.24246751862974 0.257313135195726 1.03044443248366 0.16538
0.1654 5.17375787372444 4.1889192107642 5.88357100595526 0.252872501157127 1.0139024130333 0.16539
0.16541 4.52771276001942 3.69661358912041 5.78026540743008 0.231801888501618 0.983061843529299 0.1654
0.16542 4.58321953517616 3.83516410305789 6.18011193040812 0.236888454200737 1.03402554247403 0.16541
0.16543 4.76504060240799 4.13486576421808 6.06329467843447 0.256795413985002 1.00669588833986 0.16542
0.16544 4.45949718260137 4.17665644444535 6.04942612346781 0.243473010555082 1.00812265810215 0.16543
0.16545 4.47606699181404 4.31649837675675 6.0017939071901 0.246601058951589 1.02431139716989 0.16544
0.16546 4.05665113926439 3.49304176618463 6.0081387591808 0.210722197693174 0.984323875025254 0.16545
0.16547 4.46736159798977 3.83525507213866 6.11588544652478 0.23055159323117 1.03981846600827 0.16546
0.16548 4.38722973530484 3.86802024980129 6.31173809760633 0.224141680970627 1.05732759270192 0.16547
0.16549 4.48681634754534 3.83911102795756 6.20040889236895 0.237726851334347 1.03339157483333 0.16548
0.1655 4.58240446908742 4.04443605599697 6.08743810485038 0.247013302885263 1.01845978623758 0.16549
0.16551 4.473756713734 4.08784965960402 6.11932397868227 0.245151801253998 1.03377020683303 0.1655
0.16552 4.52090723776159 4.29915301340668 6.21113237414003 0.243768907839724 1.03433305487491 0.16551
0.16553 4.58450323364495 4.28369475889515 6.27997854678503 0.249493181630681 1.06317947753808 0.16552
0.16554 4.26991594228808 3.77250720687288 6.37714110813337 0.219243785741336 1.05993992831797 0.16553
0.16555 4.43086866819113 3.6977558267786 6.39327297074907 0.224149538813513 1.06273586629214 0.16554
0.16556 4.83718629533681 3.70661396660295 6.33130901671854 0.239057091179087 1.05716726095863 0.16555
0.16557 4.79282608946487 4.0364210393737 6.01339858763858 0.242631516895531 1.02657132953246 0.16556
0.16558 5.01967903230788 4.45726065945501 5.95629663337854 0.270894541171631 1.0222672257329 0.16557
0.16559 4.32065286950042 4.31316242155626 6.07418112009408 0.241048987326941 1.03626200268807 0.16558
0.1656 4.5147529303334 4.06424024464805 6.02219670946801 0.241968521319048 1.02001104291088 0.16559
0.16561 4.17855618527876 3.80151961866905 5.94969565402032 0.223862549859854 0.993784573730734 0.1656
0.16562 4.5472566157338 4.2069634956746 6.12455168081961 0.240410356675952 1.02373327396155 0.16561
0.16563 4.89102054914478 4.10195886398247 6.02859276770185 0.253216208644771 1.04901628033792 0.16562
0.16564 4.96319967802647 4.28873893437562 6.15035949308694 0.256305118588862 1.06268687347364 0.16563
0.16565 4.92516978753122 4.18823305149151 6.29121989452189 0.256689642067203 1.06259744447437 0.16564
0.16566 4.63328041163439 3.73718537478975 6.3869872090818 0.233189927367197 1.04119695539692 0.16565
0.16567 4.57185828794769 3.97598062063392 6.38050859477901 0.241620363093659 1.04540043357783 0.16566
0.16568 4.34168992306038 3.90343718710333 6.23503053606911 0.226820685486882 1.05768563248357 0.16567
0.16569 4.9710860877146 4.26483360738735 6.0854541962056 0.260258455203202 1.03515505894859 0.16568
0.1657 4.74902912594924 3.9203276842027 6.13805376267183 0.24272273168037 1.03443293420287 0.16569
0.16571 4.67009549349297 4.04789713384463 6.16454736171115 0.249253247564752 1.02107873280013 0.1657
0.16572 4.57196625701884 4.04753306952817 6.09525001681098 0.24402457682182 1.02257522062546 0.16571
0.16573 4.5605642786677 3.90851556277796 6.05861206358467 0.241689192257242 1.01033513591076 0.16572
0.16574 4.45653337863619 4.06225657457947 6.1370596728465 0.230160063525103 1.03815236314857 0.16573
0.16575 4.29536082056835 4.07257535381443 6.04097359317977 0.246931111665461 1.0060563321092 0.16574
0.16576 4.60697518659285 3.73171798899027 6.22345549290311 0.233890256573403 1.06276616442938 0.16575
0.16577 4.52476408114862 3.80045794345913 6.26868250287511 0.231491087672953 1.01694322686298 0.16576
0.16578 4.68880276309079 4.0506294203287 6.16406612068283 0.247167526888932 1.0519784811635 0.16577
0.16579 4.6287646526243 3.93735601503384 6.18373197889135 0.237234757762802 1.05487276880803 0.16578
0.1658 4.38493113836236 3.94997818804227 6.080232972864 0.240768011640446 1.02011501730691 0.16579
0.16581 4.56653474032661 3.91154107236391 6.17807177073527 0.238944754654747 1.02741283686379 0.1658
0.16582 4.63325205810081 4.15164785975787 6.09283561962117 0.247215250362178 1.03833707493376 0.16581
0.16583 4.54582791505214 4.06053255676899 6.09043976212618 0.236411049829384 1.02445014048784 0.16582
0.16584 4.60858308979795 4.2820555499695 6.13649502957509 0.250510216486204 1.02701590094696 0.16583
0.16585 4.75564292495666 4.18009571229296 6.0114869465801 0.246073794045173 1.05403795889575 0.16584
0.16586 4.47692497046883 3.93311361135991 6.28016557546314 0.229612257856818 1.06626856987839 0.16585
0.16587 4.42829805417798 3.76341150952156 6.29965376769524 0.22433910837017 1.02321822967117 0.16586
0.16588 4.79225963581299 3.78002208985652 6.38641079572379 0.237344445398642 1.05660658944154 0.16587
0.16589 4.88612849379203 3.87216162054156 6.22081742042188 0.239784099537285 1.05020974101905 0.16588
0.1659 4.67631858467068 4.19398979733333 5.99005184468335 0.250823971722559 1.03625442536649 0.16589
0.16591 4.27981818316452 3.96104809204882 5.99907156889496 0.224129360276593 1.01472979345122 0.1659
0.16592 4.28370071456176 4.22582936065093 6.03720718341251 0.241799509994225 1.01442047771307 0.16591
0.16593 4.76864794634929 4.31261054078228 6.3316329361501 0.253891084566848 1.08444250945731 0.16592
0.16594 4.79480734412314 4.39639995873556 6.08249055672053 0.262767871279152 1.01775132286757 0.16593
0.16595 5.02041938380669 4.53411147970503 6.05909968234807 0.271853200587184 1.0363546061368 0.16594
0.16596 4.312097624696 4.15562981440019 6.07144463757565 0.238722255464305 1.02811225644552 0.16595
0.16597 4.39024883251368 4.06466491775544 5.99634825120472 0.231431989345877 1.01736624367159 0.16596
0.16598 4.71317457353511 4.04519909158298 6.33691125641695 0.241491155561551 1.06766020629334 0.16597
0.16599 4.83367755162487 3.48672221009372 6.32392769574041 0.232968494794505 1.03588390937663 0.16598
0.166 4.44708484242994 3.46677108696265 6.26855545159774 0.219087085576169 1.02852509126323 0.16599
0.16601 4.72837737099858 3.76882870528137 6.25155204787754 0.23410853980936 1.07065770579293 0.166
0.16602 4.8240056409854 3.96646292203206 6.22022594386752 0.250980546060152 1.06226088475428 0.16601
0.16603 4.73323891413367 4.33577352769621 6.08631123671286 0.253908712610952 1.03489447641267 0.16602
0.16604 4.53779039533354 4.28459121228512 6.26281969910392 0.251390843861123 1.02424564072356 0.16603
0.16605 4.61808694940179 4.17385918402835 6.12707831557562 0.236902766809102 1.02987900214626 0.16604
0.16606 4.69830120742849 3.87338702580357 6.11652448555932 0.244843144736077 0.99629993640977 0.16605
0.16607 4.5693403315578 3.8564137659345 6.15832010840761 0.241428918739175 1.02522413520041 0.16606
0.16608 4.92383474427424 4.32259818543267 6.21162766160783 0.256063393911325 1.0854600429615 0.16607
0.16609 4.88139996201819 4.16542236064387 6.36690041926448 0.261413683761703 1.06052803076798 0.16608
0.1661 4.84271624051894 4.17609810160565 6.32021779868434 0.256324100377478 1.04957049734706 0.16609
0.16611 4.4400837034765 3.79337765034604 6.35997105977987 0.232617567287819 1.03631371039946 0.1661
0.16612 4.75777966633885 4.02906475688697 5.97651058830991 0.246545301833074 1.01785031127786 0.16611
0.16613 4.41407223824433 4.36979515034268 6.11387123492952 0.244658384046105 1.03505765366941 0.16612
0.16614 4.6987394382698 4.29762888114279 6.03705888438449 0.258020677521856 1.02549964244241 0.16613
0.16615 4.42456086097681 4.27245820080546 6.18768961441604 0.241620041449449 1.01588401384674 0.16614
0.16616 4.39311370052972 3.79376250920346 6.31844712852841 0.227834627770133 1.04798626672575 0.16615
0.16617 4.76487174444992 3.70327181142222 6.15847331476142 0.23185564885559 1.05384660117329 0.16616
0.16618 4.72109729138655 3.82893876997158 6.27014427805329 0.241918082887586 1.04722460371901 0.16617
0.16619 4.4708941064612 4.23004099951962 6.13051079877451 0.254048310879202 1.034290371043 0.16618
0.1662 4.42002496407407 4.14613597115721 6.08931628882442 0.238384399644748 1.02410759867475 0.16619
0.16621 4.56976122126674 4.02080615035972 6.08430539400474 0.239172832637421 1.03769826919125 0.1662
0.16622 4.22027227795313 4.18845651880657 6.2344156672552 0.242350752809327 1.02149638794574 0.16621
0.16623 4.55740969266894 4.08581274509477 6.19458349954792 0.244913723040156 1.03397801238675 0.16622
0.16624 4.80083354612767 4.23068517297514 6.18842996383794 0.25612640715821 1.04561692318728 0.16623
0.16625 4.92392626879446 4.14226874465431 5.96147289316812 0.258187107823469 1.00278269986741 0.16624
0.16626 4.72010994783882 3.71169925902376 6.09413316373317 0.230807497205393 1.04032753209122 0.16625
0.16627 4.64871334756438 3.61124085638034 6.25212538217881 0.231230253725236 1.03408638965189 0.16626
0.16628 4.61156493133279 3.90650182058677 6.36757726457921 0.23522378726225 1.05274840666424 0.16627
0.16629 4.47574987035092 3.80234876141506 6.39604769236662 0.230870892592932 1.07278914594394 0.16628
0.1663 4.38574649724456 3.86699483066992 6.42138169374504 0.221715521453635 1.03241744784937 0.16629
0.16631 4.44600650535082 4.43037661748999 6.0582931139081 0.257234085928356 1.01881502443159 0.1663
0.16632 4.81351721170772 4.57307378669628 6.0283272685364 0.265180402168173 1.04141281461126 0.16631
0.16633 4.84348285622118 4.34813169796353 6.18892813373696 0.253858479867222 1.08387087184594 0.16632
0.16634 4.89848734560469 4.02100960267319 6.23614349647329 0.255454197547849 1.05973740582294 0.16633
0.16635 4.96160046110165 3.90945833942478 6.09831371895216 0.243369198296651 1.03824089392921 0.16634
0.16636 4.84287688228577 4.03500155427795 5.97387410325798 0.250429112626974 1.02648867667987 0.16635
0.16637 4.55356084566755 4.10572194837834 5.95977474397675 0.244871489369426 1.00880835160593 0.16636
0.16638 4.59557086424349 4.19719288537878 6.17933681605284 0.245168279747674 1.05456125809865 0.16637
0.16639 4.67908436079197 4.37394998569559 6.33738673317447 0.260610625907707 1.06221860267864 0.16638
0.1664 5.12674689006088 4.27927887212149 6.34544234434427 0.264787363882497 1.0870220653367 0.16639
0.16641 4.64085599049191 4.06034524197486 6.48858627481772 0.238484474680699 1.08329293343846 0.1664
0.16642 4.7110138261005 3.82741306600414 6.10268793483711 0.239166437628526 1.02915998575678 0.16641
0.16643 4.49400845963152 3.99255781000705 6.17869427610755 0.240111579516599 1.0341576987901 0.16642
0.16644 4.43862103658714 4.00568418906613 6.18430852748683 0.233456432533486 1.02681452667577 0.16643
0.16645 4.31077026593008 4.20924616813523 6.11510745215641 0.242890592538149 1.01844276318281 0.16644
0.16646 4.52770779886664 4.17056264636264 6.10168051706626 0.242232342916229 1.02632044478639 0.16645
0.16647 4.31428486333406 3.92966663281067 6.1503343242343 0.228328437656659 1.02687522795043 0.16646
0.16648 4.50674806384683 3.80464719110219 6.08036762356407 0.228749830689294 1.000861776962 0.16647
0.16649 4.865393457054 4.06722803782473 6.0596972123427 0.249989369174359 1.03412947307426 0.16648
0.1665 4.69665302402965 3.98293225603661 6.03699083207407 0.240675820612032 1.02641975274889 0.16649
0.16651 4.64409281463996 4.09334398423652 6.19238647914404 0.245461253634767 1.05397325662889 0.1665
0.16652 4.51253287998828 3.97382445202418 6.25342557209568 0.245572100953367 1.03512056177906 0.16651
0.16653 4.36749727111101 3.90617361159757 6.19182932309191 0.23023603981198 1.03119493737221 0.16652
0.16654 4.74255244766915 3.94622130937834 6.21821081931051 0.247350396639511 1.03764333671474 0.16653
0.16655 4.94746710944934 3.90436927180916 6.07997544300016 0.249023211656656 1.01687937202588 0.16654
0.16656 4.51269677351287 3.76921820926553 6.14523109218752 0.229515790439747 1.03993322995373 0.16655
0.16657 4.49925653900554 3.67119622725754 6.33329463124197 0.230368947717132 1.06142321906757 0.16656
0.16658 4.58591849423698 3.67294256371015 6.25787616203161 0.23217761674848 1.03264294272846 0.16657
0.16659 5.03080559392401 4.04884848155973 5.98479932459939 0.255653016824747 1.05792100505931 0.16658
0.1666 5.02869387390588 4.19076112222639 6.20162259426941 0.266777368801568 1.04337644396232 0.16659
0.16661 4.61120139704951 4.00129012496018 6.03329174668467 0.241424014356607 1.02752085878807 0.1666
0.16662 4.92450864422687 4.22877116764755 6.17402739487855 0.258549063627231 1.05289647595731 0.16661
0.16663 4.89608448306057 4.30250444269414 6.20542126912691 0.259432865525254 1.05848854511736 0.16662
0.16664 4.35895484318529 3.9869916129179 6.11444678331453 0.225829694992981 1.0207396556763 0.16663
0.16665 4.58086212850569 4.26403567886814 6.28245279341906 0.251145472233226 1.0564597514155 0.16664
0.16666 4.51258981804961 3.9409005138761 5.94339344690726 0.236137258403829 0.980116617631393 0.16665
0.16667 4.41655807391162 4.29659733299449 5.90802911179598 0.23818212426714 1.02555911675853 0.16666
0.16668 4.43271517545692 4.19993496881571 6.23860379334905 0.240394667476296 1.03561743061125 0.16667
0.16669 4.24697947295962 3.70163398012599 6.31012566682559 0.219373865405287 1.02608476301387 0.16668
0.1667 4.10622434085504 4.11943053106109 6.43276181345763 0.239764100372825 1.04850802678788 0.16669
0.16671 4.5419817786582 4.42153381338299 6.19803531692753 0.254124495302564 1.04955306553829 0.1667
0.16672 4.53278174740804 4.18252199553941 6.18647769664151 0.246526067575145 1.03412536737052 0.16671
0.16673 4.8107317166032 4.28479768809169 6.01324704027816 0.252601205862285 1.01597244189914 0.16672
0.16674 4.31179711062837 3.95444620867209 6.09607739722056 0.232286523584913 1.03516788203683 0.16673
0.16675 4.39572443250766 3.97723345633406 6.07717629724689 0.236101306986126 1.02379092401068 0.16674
0.16676 4.76813916711439 4.11420040404483 6.1109010005494 0.251078205132658 1.03217263592244 0.16675
0.16677 4.74273797876883 4.13096829443198 6.12091105155565 0.246214923890507 1.03782597976529 0.16676
0.16678 5.05534136328559 4.14440542291033 6.04463815565352 0.261959297782466 1.03879401990336 0.16677
0.16679 5.13647607728389 4.0752637438473 5.99559780196247 0.261069241017849 1.04706802019625 0.16678
0.1668 4.76696292195704 3.76396033535578 5.98333032949091 0.239774937978433 1.01675667762623 0.16679
0.16681 4.57363967158709 3.51916717914665 6.20104022552834 0.230555483856251 1.02691023131883 0.1668
0.16682 4.61907536768559 3.79268191166047 6.66723149763212 0.237196942953125 1.1134893699314 0.16681
0.16683 4.4358569896639 3.80532151844368 6.43665446660324 0.234903829744831 1.0565350605791 0.16682
0.16684 4.58934208921622 4.15264230717492 6.40584030980413 0.257232191816668 1.0310727756111 0.16683
0.16685 4.83083681938317 4.33472133269814 6.01947267168493 0.254565748396742 1.03380289857456 0.16684
0.16686 4.61003827803689 3.82059233104931 6.12090632503652 0.238645410736737 1.03824321083644 0.16685
0.16687 4.91505066685252 3.8722513248449 6.15007337205442 0.251319582383494 1.03063161191813 0.16686
0.16688 4.71409837617146 4.15250240296662 6.20601610462933 0.246902614470757 1.05027831244154 0.16687
0.16689 4.70251242790067 4.21660693970854 6.18232151548267 0.251234022942253 1.02868275543843 0.16688
0.1669 4.57322462954359 4.34095686287545 5.95038522445163 0.248761377343614 1.01603232893626 0.16689
0.16691 4.30204238012742 4.38623874469225 6.09291441730412 0.248632613815938 1.01547950055698 0.1669
0.16692 4.24824843943421 3.9119281689155 6.12977640956495 0.220983949463844 1.0109150218972 0.16691
0.16693 4.66229911860574 4.20188706615394 6.07988167942122 0.253497937457949 1.04372961415249 0.16692
0.16694 4.86816165590649 3.95168310104602 6.27729885278334 0.248251570824762 1.03936513349778 0.16693
0.16695 4.51260537225681 4.08752268994978 6.23288299584807 0.238034769586604 1.06913452937969 0.16694
0.16696 4.60995073122394 3.95085664757139 6.21446038713042 0.245636726203478 1.02258010540676 0.16695
0.16697 4.69407665127667 4.04864336002765 6.18515519213602 0.246228110924724 1.04400257134095 0.16696
0.16698 4.63713412004646 3.80840043070938 6.20141990669747 0.233721822575881 1.01470564437399 0.16697
0.16699 4.73691752003287 4.07199026023761 6.53652846896584 0.243907679747657 1.06800874947068 0.16698
0.167 4.8465129231342 3.97790500176738 6.31926757476278 0.250143033965268 1.06217871460559 0.16699
0.16701 4.87492504026431 4.09046395596086 6.42968711203081 0.242521906321176 1.09096062491998 0.167
0.16702 4.76177384976704 4.47088529325097 6.30547822178295 0.260866844357637 1.07829648555377 0.16701
0.16703 4.59395502528904 4.16021695848176 6.0352190437271 0.243072047088794 1.00439365687619 0.16702
0.16704 4.49577543883832 4.256805599271 6.11857907610346 0.242621864477002 1.02722511092675 0.16703
0.16705 4.70295287033933 4.04755778396193 6.22669508089511 0.247123786436642 1.0550360346547 0.16704
0.16706 4.82231800932353 4.43487819805125 6.08354195084212 0.263892603792253 1.02129684599476 0.16705
0.16707 4.81643140155768 4.2661577620417 6.1335424870911 0.255298739075909 1.03143136473841 0.16706
0.16708 4.53817604899252 3.93084346653706 6.03500791948609 0.232810842751704 1.01783214461168 0.16707
0.16709 4.58524600096371 4.08014478356961 6.23194908620432 0.250920635045387 1.03945928104577 0.16708
0.1671 4.88744415982173 4.21419914819512 6.13867552875225 0.254600297893784 1.05687742398158 0.16709
0.16711 4.60498525580117 4.05804435192245 6.42900049264711 0.23419377544066 1.10041479022887 0.1671
0.16712 4.45775641784215 3.9146152021997 6.41709225238613 0.232846128893411 1.05329963477043 0.16711
0.16713 4.3503285968219 3.84348033553265 6.19824579606315 0.233133769908276 1.01597211047014 0.16712
0.16714 4.54930853887529 4.15605959885611 6.21396751063089 0.236901897982803 1.050195798525 0.16713
0.16715 4.87257194061525 4.38225428788626 5.9209116632505 0.264503998065569 1.03201703292138 0.16714
0.16716 4.99854859193559 4.33333835552505 6.17116726947929 0.265286717925906 1.05925010310493 0.16715
0.16717 4.56326939519834 3.90117961015278 6.25723473909486 0.238867831399491 1.03520021961334 0.16716
0.16718 4.45267313974071 4.06693644209221 6.14347241795863 0.234732342269641 1.02954302012382 0.16717
0.16719 4.52933689464347 4.23450888648089 6.25426765884812 0.241685026413659 1.04917053329774 0.16718
0.1672 4.73487876182882 4.31375051861761 6.03878406359884 0.260276796149646 1.03321026631089 0.16719
0.16721 4.80175635355794 4.07567291635492 6.08507672368938 0.248805058429738 1.05035121410667 0.1672
0.16722 4.50742173459849 3.99635633578987 6.18324869894702 0.2391230564782 1.033679097383 0.16721
0.16723 4.70706760192906 3.95941607465384 6.33035963057268 0.240915275994543 1.06029136359012 0.16722
0.16724 4.85404166603465 3.80505609715173 6.34061749654789 0.240049959261275 1.08495711522825 0.16723
0.16725 4.48972918730831 3.94706425808396 6.18530182362019 0.229413383282471 1.0497046281206 0.16724
0.16726 4.50715494932066 3.80859666698149 6.15620070007212 0.229384456568949 1.02790575722616 0.16725
0.16727 4.76376823296628 4.27999923747132 6.0508396308565 0.261515402369126 1.03796757815441 0.16726
0.16728 5.01218135828973 4.24676693506453 6.27556719103869 0.267141438092259 1.07916190984581 0.16727
0.16729 4.97929178119615 3.9960288021795 6.44779988434445 0.247461139019344 1.09969258046852 0.16728
0.1673 4.98726097387679 4.03624536980222 6.21536563632403 0.255222093049275 1.03068192859014 0.16729
0.16731 4.96665436415662 4.03614601360988 6.14131943263839 0.247907055834631 1.03891488068298 0.1673
0.16732 4.74888453926321 3.75674013340084 6.02684414756753 0.239453237332173 1.02990664714058 0.16731
0.16733 4.83521429705202 4.16929077981188 5.86421528377187 0.252174802535598 0.991536942795171 0.16732
0.16734 4.7667926590218 4.17861176210997 6.07759785924405 0.253151552370758 1.02539113782919 0.16733
0.16735 4.93228134717868 4.31429144394833 6.27571992054539 0.260073050484833 1.05846370219099 0.16734
0.16736 4.81310407260586 4.18696577110689 6.26376819981444 0.246341486430817 1.08320619399575 0.16735
0.16737 4.94223513050257 4.32742880242306 6.12279628765723 0.261379868286658 1.0256475622001 0.16736
0.16738 4.34797549313359 4.23493526680623 6.19771937686955 0.238269144211626 1.03349151012429 0.16737
0.16739 4.47192601927797 3.76159662656998 6.3453211227131 0.223546093537901 1.074461336689 0.16738
0.1674 4.24400866797092 3.76927546532849 6.32821216995151 0.222107986993366 1.05003153776875 0.16739
0.16741 4.5546820562577 4.11039790686038 6.61085428640355 0.239491299447197 1.09472542778401 0.1674
0.16742 4.65690649341619 4.42480237350309 6.35971155253855 0.255233083942104 1.07140314178038 0.16741
0.16743 4.57425486084264 4.32710632873143 6.18104496573939 0.252022468084533 1.04250618637961 0.16742
0.16744 4.65829274462412 4.22563967870992 6.14577438996886 0.2452093609301 1.05880989279611 0.16743
0.16745 4.40763658015166 4.22177652898133 6.1201424439286 0.241421263379581 1.03549269635338 0.16744
0.16746 4.55833383281713 4.06170758540584 6.12415580050847 0.24998057478535 1.00680429312792 0.16745
0.16747 4.7280509996566 4.04497647825271 6.23942205968086 0.246234694880935 1.03689282259101 0.16746
0.16748 4.61216782179454 4.21323321392112 5.82787280377078 0.243059021914069 1.00389446097002 0.16747
0.16749 4.58387462120775 4.12740977712686 6.00449400945533 0.250110863021645 1.00923935497773 0.16748
0.1675 4.37444415318775 4.1223972034628 6.16286062754963 0.241574283591991 1.02424484201171 0.16749
0.16751 4.44023415965209 4.12409642002003 6.30849689953397 0.240899429801853 1.04701951416345 0.1675
0.16752 4.85498878011305 4.11097921483923 6.47305897852774 0.253105327765792 1.08419765651267 0.16751
0.16753 4.73282102562331 3.96118745978866 6.60127511173127 0.233324194581104 1.09577943356454 0.16752
0.16754 4.61614749925101 3.42309758738326 6.62383466901156 0.226727775631458 1.06453241749822 0.16753
0.16755 4.91044405930998 4.14563077156918 6.31201113632039 0.26123053599096 1.0549619852198 0.16754
0.16756 4.87590974755442 4.08860449704953 6.09080754254061 0.25121698491566 1.03419608679828 0.16755
0.16757 4.74052943354064 4.13419269304474 6.13279279968908 0.2454758991 1.04800082492099 0.16756
0.16758 4.92194521351793 4.3802509871465 6.04821637926067 0.261200232530345 1.03785180254772 0.16757
0.16759 4.5128796917794 4.08223429152493 5.96973006034586 0.239221844791196 1.04062121232584 0.16758
0.1676 4.76297484375503 4.11663599150745 6.12219070431921 0.249003009616154 1.02832593135734 0.16759
0.16761 4.7289349912865 4.21720305233988 6.07299394478156 0.246836742101119 1.0139117586997 0.1676
0.16762 4.63162670689835 4.14565559803648 6.15569821453471 0.25063598809289 1.05539683180002 0.16761
0.16763 4.90226184978762 4.45378382883564 6.41043714946659 0.272648889614459 1.06919397342701 0.16762
0.16764 4.45749204641888 4.25396548795328 6.57605669151136 0.244542357549905 1.0953629939512 0.16763
0.16765 4.6113391668636 4.16147411526196 6.51848142290182 0.246548984941438 1.07135718398017 0.16764
0.16766 4.6333792838432 4.51458530125303 6.37277391225312 0.255855283930729 1.07061393064655 0.16765
0.16767 4.73745990226544 4.54443277998784 6.05828076850411 0.26294529231037 1.04897218135839 0.16766
0.16768 4.78125845662233 4.06835564697522 6.24010127916091 0.253432077381257 0.998592815843307 0.16767
0.16769 4.83437900535399 4.21077977191886 6.21298403816706 0.254018187818459 1.08569419391705 0.16768
0.1677 4.8975084791296 3.75869305125622 6.35854125299501 0.24435377791267 1.03760586063607 0.16769
0.16771 4.76522857070517 3.79038393147464 6.12623718160092 0.24208983565547 1.0495179603198 0.1677
0.16772 4.78359489411888 3.74105254460124 6.20757433353659 0.239999960151109 1.06722436686441 0.16771
0.16773 4.91409534454998 3.95300266886458 6.09473964894848 0.249081978023564 1.04706082159809 0.16772
0.16774 4.64140605128668 4.21057092118479 6.11976442076918 0.25054086111318 1.06922240142834 0.16773
0.16775 4.91636504092411 4.43640975136838 6.11589502468716 0.2599534614354 1.04218892809597 0.16774
0.16776 4.62412823483176 4.04852191832756 5.97468012679591 0.242651174863759 1.04218596637454 0.16775
0.16777 4.6517987377951 3.90160909408483 6.44175443086206 0.23303561437944 1.08603392944315 0.16776
0.16778 4.60307345783032 4.07685970912015 6.47014682110732 0.244645188665565 1.05825800735051 0.16777
0.16779 4.96387344374638 4.04065091824798 6.32543733459967 0.258190596000743 1.06132420059254 0.16778
0.1678 4.93093557195274 4.16554657501464 6.33259905693278 0.255282723194774 1.07233430943964 0.16779
0.16781 4.58042924041063 3.97020933650315 6.3630309806625 0.243629848382913 1.05430738466843 0.1678
0.16782 4.80818991164635 3.97416510332008 6.37985170458039 0.250397899061009 1.0674700974985 0.16781
0.16783 4.8048281236063 4.07312355720309 6.54759744364973 0.251675666325966 1.08049636543505 0.16782
0.16784 4.51120249224189 4.25866551546868 6.19200217937713 0.236866835412145 1.04174176514437 0.16783
0.16785 4.33876933541026 4.23170754013276 6.35643136390694 0.239978036153471 1.0600993744744 0.16784
0.16786 4.70021957232571 4.2584474930465 6.08712551270837 0.244613101693271 1.035631145718 0.16785
0.16787 4.76950687112 4.42070319580925 5.91798328059503 0.258100182067447 1.00935865799899 0.16786
0.16788 4.74055339748643 4.15564732805588 6.10391014170304 0.248539290242998 1.03052879092765 0.16787
0.16789 4.73490716692544 4.06780341132175 6.11285560905808 0.253360264895031 1.04276249574959 0.16788
0.1679 4.62598034935793 3.93363717426053 6.24284266932818 0.247268447627391 1.03211598266281 0.16789
0.16791 4.36456940889265 4.20491904811197 6.31475889724789 0.241057996332785 1.0516202299478 0.1679
0.16792 4.4996450499519 4.27294159246626 6.33563708421219 0.24452284305499 1.04544335781769 0.16791
0.16793 4.79132091017996 4.32407737405024 6.12938143914442 0.258941004971203 1.04082372108683 0.16792
0.16794 4.75787269683201 4.25535783457193 6.24245009117016 0.246643449052216 1.07435586824969 0.16793
0.16795 4.67804988819167 3.9105156829546 6.1604430914993 0.246465322985924 1.04252844125657 0.16794
0.16796 4.69214854180267 4.10252577364286 6.22330894556859 0.250745315519181 1.02846981026432 0.16795
0.16797 4.67218975026838 3.96213949607199 6.44641428807954 0.245220000918527 1.0889710999096 0.16796
0.16798 4.78290287991061 4.02849237124929 6.39972023915801 0.257008905639054 1.05702280049287 0.16797
0.16799 4.83753716186163 3.8832456094278 6.32672384454274 0.238560482093901 1.06989192752755 0.16798
0.168 5.02494482566997 4.23325774345592 6.20532081883134 0.257503200756935 1.05524460351239 0.16799
0.16801 4.71518720045435 3.74948479370178 6.19302275093874 0.248914289459114 1.01138682936534 0.168
0.16802 5.12680147831905 4.18805387311789 6.13279436828955 0.266281940719783 1.05063988198344 0.16801
0.16803 4.67036235725324 4.09086146712149 6.23431307374745 0.239438377358796 1.04668123166982 0.16802
0.16804 4.83508400004509 4.16434528832245 6.12627884334614 0.255214535302428 1.0239564017481 0.16803
0.16805 4.93743578669401 4.30149328259961 6.03698368972099 0.259793550337098 1.02740430224894 0.16804
0.16806 4.6762001396356 4.13642907392127 6.10996654850319 0.251329039889635 1.02974149218042 0.16805
0.16807 4.97359198625301 4.24831409153239 6.34758004540638 0.2581926486233 1.07327546080599 0.16806
0.16808 4.87752866836426 3.99963857956083 6.42375508834118 0.247990982199994 1.05817622046877 0.16807
0.16809 4.94977770009765 4.32513192163693 6.39903184404437 0.270236858801103 1.0706880217824 0.16808
0.1681 4.72574579475033 3.94397245546692 6.37901235161329 0.241924391748727 1.06667272053455 0.16809
0.16811 4.45280212453707 3.87158484430366 6.22352226646187 0.22878012246205 1.03074506538581 0.1681
0.16812 4.61744451996617 4.13588816090511 6.26325867648439 0.24235815122082 1.04103744768217 0.16811
0.16813 4.49832854908159 4.3197768561235 6.19551242257762 0.248194015795845 1.05651995324653 0.16812
0.16814 4.63558993870694 4.22615200844372 6.24023650595609 0.248561007798811 1.05511576754447 0.16813
0.16815 4.57691881503806 4.32321625282271 6.3063501299593 0.248887697816385 1.0558258951143 0.16814
0.16816 4.61897859682089 4.18562760157847 6.27632202225017 0.241664815831206 1.04025578202699 0.16815
0.16817 4.75675303567232 4.34030877401775 6.30228679434325 0.256661042006822 1.10932978655856 0.16816
0.16818 4.79145253723403 4.23181002596086 6.19366047997574 0.260458517335383 1.03880899823592 0.16817
0.16819 4.6137352703529 4.249638051441 6.37955680852849 0.241597549252532 1.05960284634429 0.16818
0.1682 4.6493619256032 4.49359330575535 6.31485443716897 0.254560723111125 1.0765793928707 0.16819
0.16821 4.42843763388381 4.07266979231686 6.32919678179294 0.229166346125205 1.03228693610472 0.1682
0.16822 4.73361092404472 4.18239818736707 6.14604428108836 0.246254450612627 1.04540218485957 0.16821
0.16823 4.87926974827767 4.35031402914067 6.10550052118056 0.262214040162103 1.04408440319665 0.16822
0.16824 4.75545702329453 4.68514063807049 6.27622589230304 0.262246815947436 1.0665693019215 0.16823
0.16825 4.96241074308335 4.13248251270452 6.13322186615993 0.245402037138651 1.05403549086736 0.16824
0.16826 4.55252646763763 4.04601180475811 6.41088152040731 0.237623204198623 1.06641729243833 0.16825
0.16827 4.67766464850074 3.86497529021172 6.58669839476084 0.237051328147889 1.07873603885323 0.16826
0.16828 4.61191132884567 3.85800250138975 6.38712517243101 0.234762451464034 1.07838202458284 0.16827
0.16829 4.76279865724899 3.82380469252975 6.37109709654278 0.238205664350885 1.08143576700069 0.16828
0.1683 4.75701355604988 3.95650919379763 6.31969298753112 0.241819093933268 1.06626785707024 0.16829
0.16831 4.72565468797716 3.88519424664499 6.20845535350149 0.236607803149567 1.05279979340466 0.1683
0.16832 4.54911317429016 4.19180628805515 6.09846164546355 0.245125751540185 1.02004290943521 0.16831
0.16833 4.83848667189336 4.1921334568398 5.968620789046 0.256785293104413 1.00828487691659 0.16832
0.16834 4.838287240867 4.3191403439943 6.04689628139463 0.257398368400118 1.04389292259146 0.16833
0.16835 4.74484519276709 4.25395349996398 6.01382846486398 0.246655811075489 1.04399024006923 0.16834
0.16836 4.70157631385625 4.17743437742234 6.30155141492294 0.247699140879937 1.03814085768897 0.16835
0.16837 4.44041381363713 4.14755129142341 6.15818779324494 0.236263568732106 1.05039418328714 0.16836
0.16838 4.62319124812025 3.8956048557526 6.3097070556852 0.244612254023266 1.02906118440657 0.16837
0.16839 4.66720808657248 4.19855240070891 6.37182113134136 0.247114084875555 1.06057556301674 0.16838
0.1684 4.8251127514089 4.17353168839942 6.23972728179715 0.249431323963185 1.06775514996892 0.16839
0.16841 4.84699263471778 3.83738629387273 6.09418613559154 0.239347605887245 1.02727689244187 0.1684
0.16842 4.72138009248418 4.24523758778278 6.24940393111102 0.253464786882532 1.06881520376658 0.16841
0.16843 4.5306600538426 4.26440449382828 6.29108235090699 0.251419212988746 1.02739263586188 0.16842
0.16844 4.49427482282 4.24475028173361 6.21936967469552 0.251345011489458 1.02784164553664 0.16843
0.16845 4.6856899706986 4.34007317099566 6.31213458943781 0.260638482746472 1.05891313063356 0.16844
0.16846 4.65228948240255 4.18182808395175 6.33452707104079 0.249146857533102 1.07965582670369 0.16845
0.16847 4.73038658774029 4.1635050623721 6.48573812543036 0.24987641572794 1.08926803711502 0.16846
0.16848 5.02283533788955 4.13370063423075 6.32262640881199 0.257994562664791 1.06101325193949 0.16847
0.16849 5.09246015236964 4.06764077539232 6.16753957478836 0.262436309172383 1.06081279895479 0.16848
0.1685 4.60905567960905 3.95487011449681 6.16335143870746 0.23946063887302 1.01502019598446 0.16849
0.16851 4.64559183548772 3.75785887402928 6.19750094778555 0.235035521295197 1.02184146381953 0.1685
0.16852 4.85530310950343 3.85322872493164 6.25397504686916 0.242223535782926 1.04229122043073 0.16851
0.16853 4.736941554533 4.20024626015396 6.18968807848296 0.250653535068741 1.07042790369117 0.16852
0.16854 4.77424502735774 4.31073586218679 6.21637721905876 0.256977757671082 1.06218944917365 0.16853
0.16855 4.67535406995812 4.25411122041196 6.10191808997099 0.251644181984748 1.04220019640299 0.16854
0.16856 4.68024186162438 3.94219039590669 6.29513165838185 0.241471875176742 1.03694181981307 0.16855
0.16857 4.57184302645395 3.72541217048999 6.26605390967929 0.231521397590522 1.04805922017057 0.16856
0.16858 4.98089538335351 3.90063182027432 6.24597500746491 0.254009586662906 1.0519955610457 0.16857
0.16859 4.6862283246815 3.74740105514767 6.28958390854447 0.2327145926746 1.04766940251184 0.16858
0.1686 4.54216745427762 3.89552045304276 6.28996457896248 0.236191391538867 1.02655298977448 0.16859
0.16861 4.55676170972948 4.03967679802962 6.232625492411 0.233363782584591 1.06930248339902 0.1686
0.16862 4.61743009184665 4.45569136305616 6.14241909535746 0.251340376675951 1.03752528156826 0.16861
0.16863 4.98338423429275 4.55648162047345 6.15370661429751 0.271954194845877 1.042067989792 0.16862
0.16864 4.5501378723584 4.37225600658856 6.14431396981112 0.251252231166092 1.04831360228775 0.16863
0.16865 4.66282820198829 4.20516696279004 5.97697593429449 0.248243577582395 1.02678332621759 0.16864
0.16866 4.77038696972497 4.04368817093325 5.96012488134943 0.248023800995516 1.02179012009182 0.16865
0.16867 5.05022425590898 4.07578008162881 6.17075180125412 0.252886615724373 1.04028281236444 0.16866
0.16868 4.77448956861275 4.30655093714407 6.23136989022413 0.250248981539257 1.07235981544812 0.16867
0.16869 4.96345324287809 4.29409220364032 6.54323306348882 0.263613930412608 1.11885748373063 0.16868
0.1687 4.40139772614444 3.8767510083931 6.69647762175708 0.239169318158794 1.09316295180714 0.16869
0.16871 4.77151618445757 3.80296969759233 6.51767647552818 0.235723304289174 1.07599146503692 0.1687
0.16872 4.70569630581382 4.15597601955451 6.34628917133123 0.244281623022538 1.05578743606803 0.16871
0.16873 4.7118149525961 4.23425840374463 6.28344812269688 0.254289943786487 1.07075383317283 0.16872
0.16874 4.88691545540117 3.91643310111286 6.27129617602128 0.24643276988205 1.03510632693917 0.16873
0.16875 4.7225965291003 4.23904780387002 6.24371915149997 0.254734216980902 1.05714579346871 0.16874
0.16876 4.8706839061413 4.16677037522168 6.13660152491593 0.252937951165243 1.04800383800742 0.16875
0.16877 4.67431580098764 4.11230056623834 6.27455578702113 0.23881597866477 1.06458323398251 0.16876
0.16878 4.6744391118885 4.24980615407088 6.23744479647876 0.244758598302801 1.05112861465211 0.16877
0.16879 4.419958611912 4.48281803404577 6.13243185749038 0.250118913265762 1.02506932125593 0.16878
0.1688 4.53504123744626 4.28595739488753 6.20225284122622 0.242367910645677 1.0604821707335 0.16879
0.16881 4.55739255183613 3.81166836707001 6.01683761190642 0.236713333209705 1.01557464360232 0.1688
0.16882 4.88576199021838 3.93876309749905 6.35554628580903 0.237400785534726 1.09714984180275 0.16881
0.16883 5.01038882402574 3.98388680951428 6.26645402748252 0.256343507237142 1.05988576596615 0.16882
0.16884 4.89735981945291 4.21500081772534 6.25592139850822 0.257801118837898 1.05208308958058 0.16883
0.16885 4.56988872160686 4.24296138923241 6.11363627036704 0.244464789620894 1.02383455724354 0.16884
0.16886 4.42382593502432 4.20421332407945 6.25488910121521 0.242308550982996 1.05278361770385 0.16885
0.16887 4.45846940579426 3.9892182840869 6.56995175877256 0.231169333615043 1.08027007600464 0.16886
0.16888 4.59880725351455 4.15982366795141 6.63996036267361 0.25286612173821 1.0997408561897 0.16887
0.16889 5.24576540557753 4.17648552048331 6.57799491800238 0.267120981515613 1.10472924712103 0.16888
0.1689 4.93663731664168 4.16435854614444 6.26079156183836 0.250865047888604 1.06801640748729 0.16889
0.16891 4.81814790791802 3.98709994223384 6.19022375825199 0.249083093589583 1.03355295286936 0.1689
0.16892 4.92890750058765 4.00093252108247 6.23164034895531 0.248988433052392 1.06181438174486 0.16891
0.16893 4.92602229516227 4.16983644373285 6.13239322756841 0.256541711844089 1.06172692350239 0.16892
0.16894 5.02590911542221 4.43570115185434 6.12531630526606 0.269607935848483 1.05660240537418 0.16893
0.16895 4.82671958859595 4.65324089532953 6.21125953965194 0.271527618858318 1.06184422699352 0.16894
0.16896 4.97652968942072 4.29448739481774 5.97143940557222 0.263616768980612 1.04621486294649 0.16895
0.16897 4.49437600259289 3.94252474830241 6.25208364781264 0.240567203601311 1.03467499190435 0.16896
0.16898 4.69903639760173 4.00308398155863 6.2533978409693 0.243758577937773 1.04906821851584 0.16897
0.16899 4.90197122422439 3.75611352776708 6.37008625692699 0.244658507152142 1.06472494930212 0.16898
0.169 4.78839587833298 4.05714864888401 6.47641502050408 0.252039343620885 1.08117999252074 0.16899
0.16901 4.64947741789842 4.2932820959504 6.33084691275257 0.242558097344856 1.06767442397697 0.169
0.16902 4.34397535500386 4.09910326146975 6.33750479389565 0.241042872554205 1.06694489528021 0.16901
0.16903 4.64402571469223 4.25116036663168 6.32299833086903 0.254882305208144 1.03940425940302 0.16902
0.16904 4.58039422496001 4.34389050403659 6.33075645388991 0.249142891265709 1.06558130146305 0.16903
0.16905 4.5225741777308 4.57132144761259 6.25860757783983 0.256688493179852 1.06105898399466 0.16904
0.16906 4.63575147107439 4.20653988747188 6.2691808320821 0.245063492398047 1.06909476364079 0.16905
0.16907 4.45640475867279 3.85562739736228 6.31181762823536 0.229161223349503 1.05070828339797 0.16906
0.16908 4.59782680209268 4.08923448248865 6.26018528322326 0.243309819866575 1.03448904423802 0.16907
0.16909 4.9024734680242 4.13020041809377 6.06749214474763 0.253390835785412 1.05083029873284 0.16908
0.1691 4.78739277218807 3.82899499913741 6.29748883194895 0.245346867263212 1.04385217992122 0.16909
0.16911 4.78090943691928 3.91049668909054 6.43406354718154 0.250277835215277 1.0532689679464 0.1691
0.16912 4.70796866113862 4.25991761305435 6.31956128582517 0.249084223294504 1.06635366431339 0.16911
0.16913 4.85625738518675 4.3343508998446 6.23091371367281 0.253382027337768 1.05966525956102 0.16912
0.16914 4.54588974743603 4.2132061049928 6.36387274925844 0.248068158990411 1.05371687844821 0.16913
0.16915 4.96414668123883 4.28885207157967 6.43426398171829 0.255215138499407 1.10108231250539 0.16914
0.16916 4.53010045780094 4.45536056779257 6.33098963131794 0.258667768832786 1.04558806282342 0.16915
0.16917 4.6100768302394 4.05984131792213 6.31085706584141 0.234234312140745 1.06788061786559 0.16916
0.16918 4.76978251627194 4.01438494384042 6.21118044557178 0.246638699799797 1.040655635266 0.16917
0.16919 4.6590312652372 4.03828245035681 6.24103751192654 0.243529664336181 1.06090590799337 0.16918
0.1692 4.78466684288488 4.21809406390721 6.2931523471731 0.254276821364814 1.05690084757656 0.16919
0.16921 4.49014859819868 4.32595887196923 6.30159492619292 0.25170730570366 1.04208068321503 0.1692
0.16922 4.76264723659145 4.19499865594189 6.09527603257004 0.252196133141909 1.03786796110112 0.16921
0.16923 4.90565950911031 4.3321740057188 6.16662532165031 0.259886686272392 1.07096933689549 0.16922
0.16924 4.64026649398329 4.24259503655472 6.30382890783594 0.252852209737934 1.0531477902351 0.16923
0.16925 4.80040589319881 4.44443963885285 6.46522006094534 0.256286177510257 1.08120907595507 0.16924
0.16926 4.83470852995706 4.05730551108119 6.17898029241069 0.251617389963831 1.05066690572451 0.16925
0.16927 4.81941598308166 3.85715038423717 6.31084559918027 0.238758405247691 1.07597670693349 0.16926
0.16928 4.95724012267367 4.00701707307049 6.56141485755221 0.25477374982959 1.09114148941057 0.16927
0.16929 4.9718029407382 4.10269263138581 6.23482772434413 0.244223888905577 1.05588414965283 0.16928
0.1693 4.60327600562525 4.09423263162839 6.44639045969218 0.245313027191949 1.08255854793215 0.16929
0.16931 4.7160427723122 4.11693755674908 6.38804295152268 0.251548470241323 1.07799311292454 0.1693
0.16932 4.90876376732048 4.12278579135378 6.27682759536382 0.251952298638338 1.07722167932727 0.16931
0.16933 4.85150387191974 4.12447610984125 6.33723368280573 0.248731440162598 1.08864604222372 0.16932
0.16934 4.81301299538608 4.15716178167122 6.14529270940007 0.261289430807115 1.02607183867946 0.16933
0.16935 4.6430723178858 4.10385232389807 6.08502309456874 0.234766212512473 1.03940122263042 0.16934
0.16936 5.01921725626558 4.41712659304186 6.29825775452604 0.264807464713909 1.08920723387171 0.16935
0.16937 4.8536776231831 4.19436309179855 6.18201655883632 0.249442079811589 1.05478103280343 0.16936
0.16938 4.78597142695221 4.44114889676821 6.2708777637492 0.267666319162083 1.06707404672585 0.16937
0.16939 4.90869358570074 4.59194701579284 6.19728567613719 0.270919250842594 1.04011334582398 0.16938
0.1694 4.69851664287847 4.44101854284536 6.15437526948959 0.258837954260408 1.05796764096649 0.16939
0.16941 4.65160438500427 3.98378402789592 6.35526028947409 0.241125165896906 1.05786205498239 0.1694
0.16942 4.74656599893072 4.15111287911414 6.44614834785367 0.250397685151548 1.08115642200981 0.16941
0.16943 4.6112310210674 3.78605426556774 6.44734236367757 0.241924614856365 1.05011166688086 0.16942
0.16944 4.76211861214136 3.99193023061836 6.58537580422557 0.244259672182788 1.10040360097379 0.16943
0.16945 4.75141192710389 4.01033908518032 6.12439063401957 0.242833126498965 1.04499472062927 0.16944
0.16946 4.87912149946139 4.07639208017988 6.14548861064868 0.253053605046406 1.05967586373019 0.16945
0.16947 4.80540869269264 4.30550687971565 6.12251111737184 0.260984814909535 1.03046528245322 0.16946
0.16948 4.82911935040262 4.41961799061796 6.23672780871021 0.26277365612537 1.0668438139548 0.16947
0.16949 4.70769743556116 4.29193915253826 6.36759776720052 0.256651811534541 1.0583806666946 0.16948
0.1695 4.56395947349537 4.07346376755838 6.45727763929686 0.23721956104186 1.07934193277621 0.16949
0.16951 4.63238618785606 4.02981748351044 6.33130087377451 0.243793485086006 1.05276219082485 0.1695
0.16952 4.70479302883176 4.10615754121161 6.21664868649211 0.242861758705905 1.0513698945029 0.16951
0.16953 4.70893480415709 4.25757321472477 6.17729574748816 0.254385887478078 1.05267146684243 0.16952
0.16954 4.6313344454419 4.1857995004188 6.41132440774159 0.249030619395431 1.07474204065569 0.16953
0.16955 4.74210259842869 4.30169650298091 6.43743460146153 0.259177607610436 1.07798263489316 0.16954
0.16956 4.38485986096974 4.25537477032337 6.42258466704294 0.239984610242912 1.04156386397403 0.16955
0.16957 4.80280715643509 4.38654910931635 6.17823704154828 0.257917490133316 1.06396368799721 0.16956
0.16958 4.6285923242177 4.2550756105306 6.06622150373513 0.259556315781961 1.0192874527496 0.16957
0.16959 4.67081825866854 4.27726442903866 6.38438882526134 0.252591355433583 1.05755776999467 0.16958
0.1696 4.75439349172606 4.17614484945255 6.24598691081875 0.250750967238689 1.04733665969741 0.16959
0.16961 4.88343777336552 4.31583069145129 6.37547808322767 0.266203113638104 1.09355795931426 0.1696
0.16962 4.91380942217768 4.47282646414796 6.33890015658333 0.26950931358581 1.06335010555891 0.16961
0.16963 4.92688118771079 4.32504498004099 6.29240226620162 0.25598804444751 1.06185422914373 0.16962
0.16964 4.85100376931701 4.15749406009276 6.18118586062575 0.251378314172287 1.05885211914502 0.16963
0.16965 4.55512747607555 4.20016779797347 6.33742801878107 0.241893193926523 1.06589136186317 0.16964
0.16966 4.67308284965171 4.40775162103923 6.35339251899204 0.250208388627156 1.07741840811565 0.16965
0.16967 5.01890699482581 4.50499919417653 6.41081433146782 0.265653011610961 1.08091213675523 0.16966
0.16968 5.02232408097106 4.29519064814672 6.38308215943716 0.257965429051979 1.10938482280129 0.16967
0.16969 4.79813236207086 4.18250123583517 6.34194023146751 0.257947022654551 1.03464564906719 0.16968
0.1697 4.92560048891927 4.22374214057134 6.3307775693315 0.257180501868806 1.0966779086954 0.16969
0.16971 5.03433845626599 4.07704960847155 6.31750053849094 0.251881563690057 1.07872680322826 0.1697
0.16972 5.01626501910006 4.09420452961827 6.32754039600339 0.253187649196054 1.07955132377357 0.16971
0.16973 4.74096319929688 4.20985039775651 6.3227263672095 0.255023954518957 1.04128956838915 0.16972
0.16974 4.7223617372754 4.21122230501373 6.31288115854254 0.245478304948944 1.07827792335163 0.16973
0.16975 4.70249714085078 4.35657834958847 6.43578323128429 0.25917591269294 1.07265808777456 0.16974
0.16976 4.52384710308069 4.42821004873769 6.26044773208274 0.251089089034296 1.03259413675101 0.16975
0.16977 4.79818270667821 4.29728569392767 6.27516309974491 0.257994456623611 1.06168193728367 0.16976
0.16978 5.04294274800156 4.04450047737597 6.25851624179629 0.261585550527263 1.04499509820104 0.16977
0.16979 4.7705004893528 3.90594156806783 6.26288604950404 0.236839455785377 1.06180448701687 0.16978
0.1698 4.84076273776301 4.06562013695665 6.34888531663442 0.254874892599751 1.07042096183553 0.16979
0.16981 4.79628810666295 4.12985800168063 6.40616317570415 0.253780419445724 1.08293820593748 0.1698
0.16982 4.93134833794346 3.98739722231673 6.23733937648521 0.246452842473749 1.06493365829202 0.16981
0.16983 4.53769565463267 4.01752068114857 6.57832329921442 0.243382733698104 1.07824625757708 0.16982
0.16984 4.51238646631014 4.08475165278859 6.31606208057776 0.239207774487237 1.06170451570608 0.16983
0.16985 4.60465331090195 4.35801431332997 6.52057887545594 0.239063149149178 1.10307920201588 0.16984
0.16986 4.86575524155047 4.07121098039871 6.53389853604032 0.247642271916597 1.11968993139146 0.16985
0.16987 4.96950611400574 4.48934454706984 6.42379027240934 0.267967147085762 1.06918979523546 0.16986
0.16988 5.08219308734189 4.35809872200132 6.11740757278954 0.26866458714026 1.06553108836946 0.16987
0.16989 4.68246374907807 4.13154875263893 6.17327460282229 0.241685333818414 1.04689856891648 0.16988
0.1699 4.70469796434301 4.45097609975454 6.23562530292886 0.264132623300775 1.07056622388191 0.16989
0.16991 4.87027092824196 4.24772775207262 6.5033387449225 0.252299522198936 1.08926094935855 0.1699
0.16992 5.07752946524849 4.40987157945191 6.61799775322466 0.263420233873334 1.1088985338842 0.16991
0.16993 4.61616159532196 4.19926875141538 6.46313140781574 0.249487078657525 1.05685528500214 0.16992
0.16994 4.76060163339371 4.12518301078546 6.48545056206874 0.234681574329579 1.09900013111111 0.16993
0.16995 4.78079160564423 4.46464696567201 6.30470318402817 0.25761050749032 1.08816675591543 0.16994
0.16996 4.87129507398758 4.29229940916087 6.32282438498935 0.256663816552738 1.07862567301822 0.16995
0.16997 4.92897591095073 4.34490239261978 6.44962299868158 0.260060379633233 1.08857847961753 0.16996
0.16998 4.59303971550828 4.08523044675936 6.40967451773565 0.243785600330734 1.05528680209671 0.16997
0.16999 4.81427966677355 4.42406220739612 6.31434863447003 0.250548635498877 1.08435550490744 0.16998
0.17 4.69954461754786 4.33967292463271 6.48925074808425 0.250813477792115 1.06967687771121 0.16999
0.17001 4.67653144464768 4.29272816276534 6.31163450700047 0.255262988304777 1.0594139697622 0.17
0.17002 4.75818644863026 4.28415748577103 6.17149584748872 0.251614377263105 1.05733443203655 0.17001
0.17003 4.65896472299931 4.49043970255898 6.31648847852386 0.255151952545274 1.08249210553522 0.17002
0.17004 4.69722533010992 4.17437413932187 6.3786856592487 0.237491229896629 1.05924144006086 0.17003
0.17005 4.58734224712132 4.18403597251464 6.25068880541836 0.249147258741228 1.05590782679749 0.17004
0.17006 4.82893978278938 4.08052783509539 6.26653330916132 0.25301960112503 1.04166354000666 0.17005
0.17007 4.6567177896519 3.95213348263051 6.20063628548495 0.237346417281868 1.05597977808405 0.17006
0.17008 5.06677307980305 4.41478213913248 6.18475827496396 0.270745170226465 1.06428356188324 0.17007
0.17009 5.18525906434692 4.30585248286644 6.29125337561061 0.2725930895174 1.07879443305497 0.17008
0.1701 4.69939698721259 4.14711901087779 6.59308661228882 0.243410221732663 1.11188850335751 0.17009
0.17011 4.8423691097778 4.09873142427737 6.38554995745076 0.253495792239069 1.07144921788146 0.1701
0.17012 4.519760625787 3.92993472561382 6.46486799142765 0.23530356096647 1.10456624054143 0.17011
0.17013 4.79052419802202 4.19723049373757 6.46175747087886 0.24956613389393 1.08988856784192 0.17012
0.17014 4.69525290420537 3.94138298157041 6.46352658781 0.236982601310233 1.08384149790367 0.17013
0.17015 5.1098688929278 4.32634663716308 6.57145086305178 0.26812554833348 1.11880736302614 0.17014
0.17016 5.10628275093077 4.31132505250932 6.40909891992668 0.26001231418894 1.11336238381502 0.17015
0.17017 4.64879334359126 4.3657091889305 6.2917860172973 0.256777265786641 1.05831664031816 0.17016
0.17018 4.56050670154396 4.33592057833668 6.21997026035672 0.241242881594494 1.04216703768956 0.17017
0.17019 4.51801376684797 4.10073783936872 6.20449852532669 0.238883527006439 1.04363814760667 0.17018
0.1702 5.02622805287381 4.18015631377779 6.39314141499795 0.255271150663757 1.11267330137768 0.17019
0.17021 4.97637565300221 4.4385636845348 6.37734927624718 0.261197349545002 1.09069849425913 0.1702
0.17022 4.92960237481198 4.59172416937423 6.52307773669865 0.271109052341475 1.10539198451063 0.17021
0.17023 4.57126745760374 4.43574188239732 6.49217998022504 0.259663327305613 1.08688242452327 0.17022
0.17024 4.93483029468139 4.09100982719377 6.37695793824483 0.252265100972584 1.06796143308973 0.17023
0.17025 4.86269404020211 4.50233118245453 6.31893276155749 0.262527431855968 1.07050199553784 0.17024
0.17026 4.98337394623427 4.39223402730322 6.36606729262431 0.261990642602115 1.08396594065876 0.17025
0.17027 4.71741691312612 3.9191690213342 6.34986083062371 0.244594173475734 1.0414940552102 0.17026
0.17028 4.76759873347759 4.36772606876994 6.22839114908076 0.254580416621948 1.05457724960172 0.17027
0.17029 4.90331015067181 4.46111916422378 6.24532564555779 0.262603823373141 1.07630524530368 0.17028
0.1703 4.94687186920467 4.22245367397918 6.43290249844752 0.256095579392752 1.0757380100442 0.17029
0.17031 5.01815886333647 4.17484749053104 6.34106699902043 0.260803431409454 1.08122159509063 0.1703
0.17032 4.99434088269787 4.24345553557943 6.24717806621523 0.249775101626956 1.08735073440719 0.17031
0.17033 4.86379908579398 4.26848322621607 6.41041539791257 0.256448367494255 1.08276940828471 0.17032
0.17034 4.82662464686971 4.41600777539759 6.45354490306618 0.261471106840703 1.08964241732425 0.17033
0.17035 4.88963405270388 4.2488051859756 6.4885251440454 0.254635014851995 1.10338479641942 0.17034
0.17036 4.94017796406359 3.96577566505622 6.54218509989309 0.25572075197326 1.09064408570265 0.17035
0.17037 4.69098559413486 4.22200666474422 6.51886288040815 0.251828689291604 1.06834103487276 0.17036
0.17038 4.62652039145932 4.34730970445898 6.44599999016826 0.25299653012803 1.08471402023752 0.17037
0.17039 4.89463289106673 4.37307700682415 6.49971769710983 0.254487583830722 1.10671430291387 0.17038
0.1704 5.10111604882562 4.384998073532 6.31312633265459 0.269226047528867 1.09087536872627 0.17039
0.17041 4.95351312606631 4.57242924070306 6.34419635402771 0.271331728929938 1.07631977100191 0.1704
0.17042 4.43139061458684 4.21206597750556 6.27037863077247 0.241730332829662 1.04307931553859 0.17041
0.17043 4.41097535241875 4.0704715580539 6.48744732799352 0.233313668583462 1.07139035632765 0.17042
0.17044 4.65830880597596 4.0859141205322 6.35773127066552 0.243691951433448 1.04676626544844 0.17043
0.17045 4.98199573144425 4.20559233642659 6.35998841372766 0.261790020854535 1.0711848932995 0.17044
0.17046 4.81326424867975 4.59940938768553 6.39985489155783 0.270028827465136 1.07168524631643 0.17045
0.17047 4.79557635291154 4.53553814139957 6.32514871038114 0.258068250515299 1.05452746467889 0.17046
0.17048 4.71745130633312 4.53266610033932 6.30277957204586 0.264806931379692 1.06981218047276 0.17047
0.17049 4.70463347708679 4.33748072713913 6.44656876661859 0.258347737621103 1.09371446497064 0.17048
0.1705 4.98192934202147 4.33837374145039 6.32270577135535 0.262995751978287 1.05850330951765 0.17049
0.17051 4.79832370489808 4.21895231546592 6.46609947514733 0.252229969668468 1.098097737466 0.1705
0.17052 4.84223172747925 4.00874929207307 6.5274197517996 0.252914827525115 1.05738328305537 0.17051
0.17053 4.88552459512575 4.18485614657108 6.61170111179243 0.250202280288805 1.08243843332976 0.17052
0.17054 4.79878067259343 4.12897744930096 6.50786560554638 0.248546162127631 1.08070859148412 0.17053
0.17055 5.00346885828521 4.3676055940833 6.20654293481925 0.261046958558131 1.07944939173089 0.17054
0.17056 4.81319711463847 4.47011646703461 6.28982900624069 0.251351456126425 1.08264399964603 0.17055
0.17057 4.82322432347012 4.34521123781313 6.43157171838065 0.247426909252761 1.08873450330515 0.17056
0.17058 4.94344153741062 4.30072813125217 6.39521744520457 0.257638031622504 1.07724245783446 0.17057
0.17059 5.3860840121813 4.44355466830481 6.39737522918729 0.26918851762107 1.12718227936576 0.17058
0.1706 5.22064865536772 4.12936478815727 6.52264772316144 0.266393935751085 1.09864555662162 0.17059
0.17061 4.81415639518661 3.98032386471532 6.53637496174814 0.243833102109201 1.07359507330794 0.1706
0.17062 5.08502721245792 4.41665042152875 6.62892399278492 0.268943343498985 1.11232185075554 0.17061
0.17063 4.76571781420368 4.32121143461861 6.43839286089862 0.257085839304265 1.08210173372934 0.17062
0.17064 4.86204267685285 4.45281764542677 6.47689758134705 0.259711649293127 1.1191846996857 0.17063
0.17065 4.71845984912356 4.29290598699003 6.56686071800237 0.249662609036831 1.04272018472379 0.17064
0.17066 4.67033870081697 4.36504483277172 6.28710710735586 0.254414290565981 1.0661635160036 0.17065
0.17067 4.89542338680919 4.66529847811206 6.46423249289225 0.270522606164406 1.08680781246282 0.17066
0.17068 4.98625611791884 4.55069186056821 6.44643440070202 0.266136265026537 1.10709509998521 0.17067
0.17069 4.75405587852912 4.28559106979129 6.2975204733351 0.252693874352431 1.07896952135014 0.17068
0.1707 4.64476017769004 4.11255698559902 6.42335432566574 0.243289960932428 1.07330682797215 0.17069
0.17071 4.58290432611576 4.46398796969493 6.31981211144155 0.252445354125408 1.05849538501549 0.1707
0.17072 4.85293812598855 4.46056601471508 6.39617775293938 0.263645484751109 1.09651973347065 0.17071
0.17073 5.08226242173389 4.31312462886548 6.47877692523875 0.272193825660074 1.09292442288861 0.17072
0.17074 4.99462295554838 4.73583128453493 6.54763226903189 0.270482615424572 1.11007765345765 0.17073
0.17075 4.8577834853516 4.27315586737973 6.54189586792845 0.258817120551738 1.10645880176571 0.17074
0.17076 4.67979144747988 4.29658211138608 6.44084294560481 0.254982963849905 1.06770619078722 0.17075
0.17077 4.59551605948909 4.23828716390867 6.58505534824963 0.244210222023638 1.10281414643246 0.17076
0.17078 4.68047799161259 4.0414376487096 6.58399262110673 0.24197255904622 1.0908419110985 0.17077
0.17079 5.14898507288332 4.29603157310349 6.55069847392862 0.263492539520223 1.11374154065764 0.17078
0.1708 5.18174489943784 4.72597724835512 6.19923436228888 0.277362493673655 1.09241984906076 0.17079
0.17081 4.81320258809144 4.38302011271965 6.24389542770018 0.255777776099831 1.08322249118462 0.1708
0.17082 4.89183359114547 4.1737018246381 6.34328246224229 0.256377233191518 1.06807034819136 0.17081
0.17083 4.77373981305628 4.12120421582754 6.36396344725348 0.245593092726129 1.07770033675033 0.17082
0.17084 5.11737249412171 4.2921513425142 6.34753866141827 0.270596588087995 1.09589353714858 0.17083
0.17085 4.72678019349942 4.36043111277293 6.54956386832338 0.252499123363981 1.10617839465194 0.17084
0.17086 4.88812811715816 4.1336346256059 6.49578995884704 0.253232745967469 1.08676599975262 0.17085
0.17087 5.28784465541776 4.46272442735421 6.19892379977504 0.272297496365784 1.09176702994064 0.17086
0.17088 5.28975219603926 4.43657877990709 6.19491128066273 0.278843948164014 1.07378005847392 0.17087
0.17089 5.13286182065859 4.13001716611011 6.20578336327488 0.260471837030006 1.06549446463894 0.17088
0.1709 4.7547457171364 4.20553744064348 6.37008715944626 0.241590791895474 1.09877643186425 0.17089
0.17091 4.78425335895637 4.11635895449287 6.44534381341635 0.243351583335675 1.10100598201738 0.1709
0.17092 4.73468018124283 4.22340618813064 6.50289595748451 0.24885520799911 1.09307768617958 0.17091
0.17093 4.77033745827822 4.37479987746133 6.40779472226689 0.258801441076397 1.05930401528496 0.17092
0.17094 4.7803302607444 4.19897257508 6.55328325435021 0.256663590697923 1.09965886728129 0.17093
0.17095 4.90883767878968 4.64238145808095 6.51254228752645 0.265402886232707 1.10466847210827 0.17094
0.17096 4.72119411260207 4.58698789498299 6.54820782566378 0.267234530289028 1.10027846712643 0.17095
0.17097 4.81266993615451 4.37316153390352 6.27275884132207 0.255396519001693 1.07171943839413 0.17096
0.17098 4.68083522565133 4.3928242914023 6.52177040479381 0.25358778440991 1.0770428157066 0.17097
0.17099 4.89996397781169 4.54234844506144 6.53212389464084 0.262734968350322 1.11833224462848 0.17098
0.171 5.01572040778911 4.18917673774227 6.41608342455008 0.258019444614282 1.0871885007523 0.17099
0.17101 5.06877553834523 4.20615422390274 6.29349718805792 0.268433947751121 1.05441992530802 0.171
0.17102 4.96486793259231 4.43018674714429 6.23820285640413 0.267001606509117 1.05621481401296 0.17101
0.17103 4.99698456788773 4.20636999646874 6.45696747720415 0.251306981269079 1.10269775526226 0.17102
0.17104 5.02897655120851 4.37633288254744 6.5915461659121 0.268845062907571 1.11963256173394 0.17103
0.17105 5.12266481045014 4.34259753497144 6.52175722132524 0.273008148617329 1.10662361313481 0.17104
0.17106 4.96303737877918 3.96608710479484 6.4608720501534 0.252382790556041 1.08691447801403 0.17105
0.17107 5.00989858928917 4.13934092238412 6.29497304735578 0.249249032059441 1.07133686880866 0.17106
0.17108 4.93523506554103 4.23025825168597 6.1823271736649 0.261703175194026 1.05559141632214 0.17107
0.17109 5.11083416279548 4.44966137328589 6.29646516438407 0.272734152918872 1.06286577923465 0.17108
0.1711 5.03219784332003 4.78199553485859 6.45907157354619 0.27176248559966 1.1081112264012 0.17109
0.17111 5.01017214950037 4.17907085666254 6.46019631795617 0.253201856961702 1.08114671519176 0.1711
0.17112 4.68864828692032 4.34685101716044 6.41706525915994 0.252201387092331 1.06132675696951 0.17111
0.17113 4.78121800164763 4.26596487883404 6.40953125498695 0.2553420241262 1.05391790043465 0.17112
0.17114 4.79400464073995 4.06081788084019 6.44409866599703 0.247923722922409 1.09336395974836 0.17113
0.17115 5.24698111388812 4.46664123632369 6.35089645760944 0.270472878026125 1.09848925889634 0.17114
0.17116 4.88483648747358 4.37439901451257 6.48482876472735 0.260217220142016 1.07776071708915 0.17115
0.17117 4.92913391824746 4.24090138335726 6.54560178375946 0.254623564694839 1.10411518497797 0.17116
0.17118 4.73941239547647 4.32998473176006 6.42881682363264 0.25401776695156 1.08753892310166 0.17117
0.17119 4.66139967738002 4.44695508567843 6.51781905909151 0.248670631526221 1.08419418590892 0.17118
0.1712 4.27215354199676 4.20419487698776 6.57048398691247 0.234534945728387 1.09870899213788 0.17119
0.17121 4.77490689896469 4.42046201160368 6.73144544130473 0.262850454123975 1.10281067963927 0.1712
0.17122 4.5450954879736 4.40873383377815 6.47330476140792 0.258580632253326 1.05748655634385 0.17121
0.17123 4.58863887105643 4.44304454741896 6.38027976403974 0.247879442669439 1.07239021169589 0.17122
0.17124 4.75782125347075 4.3918908693968 6.25758902081364 0.257548254010444 1.07755844455447 0.17123
0.17125 5.16465543249105 4.32327482035974 6.26629456027781 0.268549721540632 1.07516516679532 0.17124
0.17126 4.8184552405201 4.27679204543526 6.12714168896805 0.251668889059879 1.04939863001163 0.17125
0.17127 4.58614987055616 3.81050198865897 6.08560879440264 0.231664676945213 1.03225761857158 0.17126
0.17128 4.49446549137385 4.08811551847169 6.0467118626927 0.234867099434805 1.01898015440888 0.17127
0.17129 4.61239799813274 3.8308081148393 5.96576960635675 0.239833799690681 1.00601901325916 0.17128
0.1713 4.77941164955116 4.03385857569712 6.13798098761963 0.252344446389104 1.03829469013289 0.17129
0.17131 5.14509494891437 3.93774284773755 6.09186344738739 0.257465136760427 1.01469694946952 0.1713
0.17132 4.95683624036985 4.09660989816324 6.06775859904391 0.253516306884311 1.0495960044052 0.17131
0.17133 5.07241281171717 4.3875197200207 5.95848592749087 0.261203297352103 1.01886065701157 0.17132
0.17134 4.90544683041759 3.88309412696592 6.05328676711516 0.244012137203431 1.0432622546666 0.17133
0.17135 4.45537681032618 3.82499711440161 6.2520900951924 0.236903181967353 1.02606001654122 0.17134
0.17136 4.6515991825837 3.86304794147038 6.28566283221003 0.236656907292897 1.01169878240431 0.17135
0.17137 4.50420750485992 4.21851213082035 6.0067247369022 0.250726733757085 1.03659058708232 0.17136
0.17138 4.53146781052938 3.95811877618801 6.19041689804478 0.241116097744222 1.04827116737961 0.17137
0.17139 4.62051339885392 3.87524004665531 6.1114683197488 0.237688797153676 1.05260673972693 0.17138
0.1714 4.43239920446964 4.09116293456157 6.21460683673713 0.229795270878799 1.04500658552914 0.17139
0.17141 4.60168686163251 4.04558410232742 6.07675799333697 0.251789447679894 1.00011866345848 0.1714
0.17142 4.2872348849894 4.12973940445685 6.27063015281343 0.236931955551394 1.03838591976237 0.17141
0.17143 4.15316627711544 4.17649349426484 6.0623034522846 0.235958602457294 1.01008978570943 0.17142
0.17144 4.20875392353367 4.05824113031373 5.91812554507609 0.230178797922008 0.996808183518609 0.17143
0.17145 4.25872250955297 3.77763589418612 6.04121104858458 0.223294252307648 1.03481460796647 0.17144
0.17146 4.0048675493087 4.0327991097137 6.12490301379847 0.223061882565801 1.02864128795553 0.17145
0.17147 4.25046541861209 3.97431342085023 6.14207013731922 0.228550079097036 1.0330136849891 0.17146
0.17148 4.46761792619177 4.00948676064763 6.20311652147651 0.239562158480976 1.03929216840742 0.17147
0.17149 4.40821425669739 4.02376587918792 5.93051609050764 0.23464246540695 0.988651401614332 0.17148
0.1715 4.27600873384089 3.84521698669499 5.8757743496757 0.225999171792365 0.993191902873331 0.17149
0.17151 4.28611585344333 3.63530930272758 5.69516543122481 0.215464321407321 0.948433296196018 0.1715
0.17152 4.03114800279437 3.72830396504485 5.25247949240634 0.221625730449901 0.889166026700361 0.17151
0.17153 3.78569049198302 3.79739819265754 5.29020248220757 0.209993523599879 0.889910521234018 0.17152
0.17154 3.72541831644616 3.94277039448859 5.26470218750126 0.213295656355345 0.874787761227031 0.17153
0.17155 4.11004620796916 3.99023382687946 5.08126051868327 0.23133502882468 0.872298372783959 0.17154
0.17156 4.42203835297334 3.82251025105919 4.93519898720409 0.231314717054408 0.85134887658598 0.17155
0.17157 4.44851116414526 3.71960759878549 4.99434719168284 0.226525174816529 0.870209706399317 0.17156
0.17158 4.39866395953704 3.62212394844466 4.94660688552446 0.222926177782697 0.873183055320039 0.17157
0.17159 4.13481582947471 3.55223657771942 5.10921435468819 0.21866208922674 0.878454419120669 0.17158
0.1716 3.78141564047623 4.1706285662939 5.26687856515116 0.219951825500044 0.894976193533331 0.17159
0.17161 3.60706392708745 3.91566506767095 5.50304989790826 0.2099320183132 0.931118161968176 0.1716
0.17162 3.50443797235352 3.84578892175069 5.77457004765236 0.206050181847261 0.935243078896986 0.17161
0.17163 3.70061032401567 3.66570776348166 5.81889119587821 0.205071606745222 0.94615390047927 0.17162
0.17164 3.87917682695171 3.60692642363367 5.7805205235569 0.212357682046743 0.936832723066461 0.17163
0.17165 3.72833899058912 3.26988200861242 5.70983588055361 0.193249586093217 0.927503754310284 0.17164
0.17166 3.42619980615472 3.59450022298038 5.57953230604085 0.196108164396843 0.935529846644557 0.17165
0.17167 3.40254415137294 3.92358361536515 5.66766711296959 0.200988371069884 0.928212502058122 0.17166
0.17168 3.27896937716473 3.78932679929279 5.52376688933061 0.20225287840506 0.893855619083115 0.17167
0.17169 3.47675195612946 3.99288226654333 5.58482419613853 0.206398951979888 0.953191922975757 0.17168
0.1717 3.3141894981076 4.08086526856922 5.4031955541786 0.205676831730671 0.91285965203835 0.17169
0.17171 3.52142395701558 4.24629778758573 5.32802117587411 0.216840811497465 0.903954773627602 0.1717
0.17172 3.41860150543036 3.98028315892115 5.33010922336504 0.2021725706977 0.905084624862953 0.17171
0.17173 3.52139869368499 3.75460418631933 5.38590706335194 0.206741901703663 0.89331606381657 0.17172
0.17174 3.17109228051223 3.59905587025276 5.4066790707458 0.191156058274964 0.883153552044251 0.17173
0.17175 3.86999228101228 3.82117659753503 5.51010635521264 0.212985065509324 0.940865738669878 0.17174
0.17176 3.86958592623878 4.05505721243598 5.28444010425868 0.233537196655687 0.892691762484994 0.17175
0.17177 3.22716756014655 4.0587757841777 5.1979189667194 0.204159385198702 0.886504150780078 0.17176
0.17178 3.2191542547653 3.40480321009035 5.27789130152084 0.179762485512495 0.875540895420543 0.17177
0.17179 3.25393405626011 3.66653249348704 5.16197968232576 0.203047960750978 0.838698551853521 0.17178
0.1718 3.83366822272377 3.69797874230049 5.13011814551024 0.204597543251331 0.899351724051153 0.17179
0.17181 4.04819205822973 3.91044210675304 5.2680319505607 0.218437923435938 0.901301953890354 0.1718
0.17182 4.15439197191105 3.6635281196675 5.1734590550575 0.221174470839403 0.8886258828191 0.17181
0.17183 3.70312496987357 3.68678783947424 5.37786319719197 0.208949880022622 0.912794239456459 0.17182
0.17184 3.4163918581346 3.96743132430621 5.19840823667361 0.199898581168595 0.906221648444302 0.17183
0.17185 3.35075104897786 3.82783216737583 5.02140036572918 0.201803823036095 0.845939312969818 0.17184
0.17186 3.50017034913521 4.08106541776205 5.10480858631191 0.214842373604697 0.883115192207621 0.17185
0.17187 3.52953799225309 4.12012634225815 5.2212463718756 0.215093829987865 0.8873226265031 0.17186
0.17188 3.50979674443884 3.64684695426505 5.11447919549414 0.191687985021714 0.872676637729685 0.17187
0.17189 3.30893261339773 3.31516069695871 5.36259086626166 0.196659835210136 0.846116347166532 0.17188
0.1719 3.65817491086973 3.55784548486384 5.17974319203308 0.19970781625713 0.893027169306513 0.17189
0.17191 3.64856577471221 3.43090492874753 5.40380118019072 0.196580807515622 0.885823446160253 0.1719
0.17192 3.36345252428917 3.47844591423353 5.47417771341769 0.183010544984518 0.898542256303158 0.17191
0.17193 3.21773067531317 3.26388724651435 5.40472953784115 0.18021044072501 0.881205053185496 0.17192
0.17194 3.21019929938514 3.55848717471965 5.35276060228084 0.198462129532731 0.868858822436724 0.17193
0.17195 3.55460702841814 3.90541828280049 5.31546988353197 0.20360086511434 0.895855230979798 0.17194
0.17196 3.5173518506376 3.66938922360044 5.07818329932842 0.201813526311331 0.840806274820226 0.17195
0.17197 3.61363268427262 3.82630666506472 5.07528847959956 0.209010407629608 0.862657652792213 0.17196
0.17198 3.20458146139901 3.8167518969239 4.81747905393565 0.199222478952603 0.828743378751254 0.17197
0.17199 3.29611964410426 3.81591305150732 4.73799588692366 0.204682019395998 0.796820198472458 0.17198
0.172 3.13724708736542 3.56581702815688 4.91759733889926 0.198990725924626 0.782930518346651 0.17199
0.17201 3.13842582229241 3.45798915401206 5.11794663087344 0.192165070134632 0.866612133937702 0.172
0.17202 3.65058473024008 4.01943007296469 5.18096491271061 0.222495758558702 0.879574019328172 0.17201
0.17203 3.44598233770676 4.18776961220064 5.24347870120396 0.214896811194909 0.89036430193929 0.17202
0.17204 3.10908423789552 3.75688389268322 5.55480793678976 0.179971141161868 0.927070442306186 0.17203
0.17205 3.34106077225208 3.55672077600604 5.70141417694176 0.197083255083042 0.91504248731 0.17204
0.17206 3.04673901704117 3.36168704149719 5.71578103570979 0.171471633656855 0.912379914376411 0.17205
0.17207 3.40313243257196 3.53016916992605 5.48222011705146 0.189982618507288 0.911576317902123 0.17206
0.17208 3.40186582058439 3.55260789239067 5.36490829946295 0.195062058804162 0.886771424729461 0.17207
0.17209 3.37539092638547 3.37972537203926 5.37695516950855 0.185758556603186 0.871364851407522 0.17208
0.1721 3.42646798022276 3.32584522803099 5.32935931499572 0.190280852194197 0.875748393675148 0.17209
0.17211 3.51978304804072 3.59055058645818 5.45442121472209 0.196342813346222 0.899904917108604 0.1721
0.17212 3.60363167387708 3.64609367234908 5.27036014620157 0.207030074188032 0.887228194422361 0.17211
0.17213 3.7304617400239 4.09184019848287 5.04611085489062 0.220659620738061 0.879749323679538 0.17212
0.17214 3.64703089156994 3.45599549877175 4.74222921984174 0.202615199187211 0.808118369173219 0.17213
0.17215 3.43133223528911 3.53171916102644 4.90903784233153 0.195160180203054 0.808658316489478 0.17214
0.17216 3.57828311056867 3.51203877592066 5.08480868839191 0.199907187469259 0.844743617635246 0.17215
0.17217 3.45159835858895 3.1302588105164 4.83020067985465 0.18909523105785 0.799918794760982 0.17216
0.17218 3.26842284434012 3.34751054856604 4.99320115325871 0.187158260405721 0.835989858577093 0.17217
0.17219 3.29839729066193 3.78850074312995 4.99688917137096 0.195425092272461 0.824630023005584 0.17218
0.1722 3.38458083764684 3.56070313461115 4.98557220529742 0.198516679803765 0.831898396265277 0.17219
0.17221 3.50369183060427 3.86909094853316 5.30777468532715 0.200275293483869 0.89870637216681 0.1722
0.17222 3.37845759206057 3.91203315111577 5.54596338862213 0.205199358200622 0.907714255663304 0.17221
0.17223 3.3413452766956 3.49603758738538 5.35077983094052 0.193315485639372 0.895715527240469 0.17222
0.17224 3.43235358184298 3.65675752778511 5.17950415537274 0.20225713959433 0.860033791466929 0.17223
0.17225 3.43236687322719 3.63462083185763 5.18266427662542 0.194468085191226 0.870862736872409 0.17224
0.17226 3.69681997166907 3.97768032694988 5.16395826577161 0.21775725183669 0.866842536044764 0.17225
0.17227 3.72096675066624 3.27623062256223 5.21825985223569 0.189193888865274 0.871037676102488 0.17226
0.17228 3.75356450358499 3.41787944906207 5.27743332781927 0.201110004264184 0.870377631645948 0.17227
0.17229 3.35077454264357 3.30388491256805 5.19452584229223 0.191739600177 0.830723509902965 0.17228
0.1723 3.27015914992393 3.47716923563206 5.2389122632977 0.185121197788448 0.898481072118959 0.17229
0.17231 3.45543362424926 3.43462448449432 4.97359735927107 0.196339953826503 0.833163706795318 0.1723
0.17232 3.51537993224321 3.68007555931543 4.92276846725684 0.203188470926415 0.793153121645094 0.17231
0.17233 3.79424597980919 3.49004651296545 4.9160729034257 0.204180496064694 0.808878713205564 0.17232
0.17234 3.80450702902118 3.44541283222251 5.10722530835007 0.201668967649146 0.861381279647245 0.17233
0.17235 3.42110315569904 3.23766414433782 5.14101083850263 0.184635205493497 0.848210975930601 0.17234
0.17236 3.86537235226884 3.39397443919884 5.11052581574973 0.20589666923807 0.844814714385005 0.17235
0.17237 3.76208198886287 3.40390342116335 5.09131497389338 0.195189897152982 0.847219399576617 0.17236
0.17238 3.45778396398058 3.39776955429156 5.08103688790782 0.182769789798319 0.865433029483456 0.17237
0.17239 3.22815346762757 3.09795948371215 5.17125959815358 0.18336770994367 0.832422707074216 0.17238
0.1724 3.36510218814625 3.00235993065467 5.0880647005676 0.17917924437903 0.843452707131905 0.17239
0.17241 3.4078877030892 3.26581535959361 5.05608147473433 0.185736029092307 0.861872886600272 0.1724
0.17242 3.33902954560447 3.60698098307527 5.2103932220048 0.199174286076575 0.831977318390393 0.17241
0.17243 3.34694430985157 3.56184908110276 5.0175091785215 0.19976418112558 0.812470045444891 0.17242
0.17244 3.10802578381601 3.33719064495048 4.91567600668636 0.178812574684071 0.821184716489147 0.17243
0.17245 3.01631006610515 3.11493187599216 5.03604580193544 0.170065187765442 0.833139020977757 0.17244
0.17246 2.96569623269853 3.30952535691128 5.16152338471253 0.174989093854026 0.846060596197334 0.17245
0.17247 3.44550025431691 3.7748722422138 5.38268322025962 0.199610078733681 0.904682212977005 0.17246
0.17248 3.13679500809356 3.38158942825194 5.52189182183303 0.182494146392136 0.880477512328748 0.17247
0.17249 3.13419245459046 3.57410270617413 5.43065840405323 0.185269782195184 0.909682913392227 0.17248
0.1725 3.06661549572952 3.27454895385683 5.49306227674082 0.173474972087774 0.891735782972967 0.17249
0.17251 3.48272973257439 3.42326364051356 5.1996832354307 0.19791608026241 0.865409235812683 0.1725
0.17252 3.57613818877206 3.32057071239693 5.05650518296389 0.192477036033318 0.834714043859833 0.17251
0.17253 3.33574664026367 3.52536989806845 4.81810868728202 0.192771319201349 0.79196057573915 0.17252
0.17254 3.63668822120347 3.58730209084987 4.74544636512953 0.207558356096135 0.820039145892352 0.17253
0.17255 3.75879272032643 3.78896082785714 4.75789395146664 0.217234332527109 0.817311170171668 0.17254
0.17256 3.48296495141966 3.47689188652541 4.90110975744823 0.185213940520881 0.844904444897179 0.17255
0.17257 3.78630195727423 3.37410486709632 4.92130667480641 0.208424221775447 0.810970779037754 0.17256
0.17258 3.51403060628362 3.52027345698121 5.03605530196833 0.193751620836047 0.856099657598663 0.17257
0.17259 3.6211926041598 3.33929484033038 5.1969167112796 0.191946730173412 0.857859469839377 0.17258
0.1726 3.57603681001579 3.55611883938687 5.30501950841984 0.204517040247013 0.864867638579008 0.17259
0.17261 3.79238822649786 3.71944170696445 5.28919778717894 0.216698427513457 0.915363183968961 0.1726
0.17262 3.67478124364999 3.70854231726259 5.2632560946754 0.198369008455864 0.890161495090112 0.17261
0.17263 3.30815877661556 3.51561351688014 5.32543362323703 0.197562007959327 0.850790134895158 0.17262
0.17264 3.38519269030667 3.64900094208467 5.12088865083476 0.198875564617891 0.85957907386601 0.17263
0.17265 3.54782118121646 3.66715704299664 4.98302564623995 0.202310111677609 0.834050468817666 0.17264
0.17266 3.35418397171206 3.11558493943722 5.08557618415571 0.179844204526301 0.832188124804796 0.17265
0.17267 3.18312299982639 3.46865663902346 5.14084853285567 0.18982171535669 0.858386055976878 0.17266
0.17268 3.53795887109462 3.31947032518982 5.2095775586897 0.190357176954074 0.853622432242139 0.17267
0.17269 3.28218745194366 3.33605512755048 5.1997228986414 0.180731931958657 0.866187717448545 0.17268
0.1727 3.08894575292942 3.36172807804812 5.10952266972415 0.185127185833169 0.838872719409038 0.17269
0.17271 2.83730315682896 3.427662231421 5.08782426146565 0.175454047399149 0.843146065992594 0.1727
0.17272 3.18925690115625 3.881205519571 5.1972756512026 0.194961250233783 0.872678551915252 0.17271
0.17273 3.30924276961932 3.82268593739866 5.00709869377711 0.202339910134819 0.824192163535003 0.17272
0.17274 3.59251238085802 3.68256686809154 4.79471753804088 0.206603929869404 0.823454521340933 0.17273
0.17275 3.48618783927872 3.49255904978133 4.98831611433251 0.192141183624776 0.85292798333001 0.17274
0.17276 3.49240054435107 3.23997046583245 5.00771151719468 0.1884220822964 0.817927210082834 0.17275
0.17277 3.29967749319463 3.23437776655677 5.20718329525171 0.181619357305546 0.859270046640501 0.17276
0.17278 3.49246262848363 3.80492095672694 5.32145799407432 0.20230451053391 0.892500500096063 0.17277
0.17279 3.42533394200695 3.35816799244611 5.31164877295507 0.189961659540815 0.877212268615305 0.17278
0.1728 3.33615544696468 3.22961918999756 5.24327442958902 0.176830196144841 0.886803377189767 0.17279
0.17281 3.58084488576895 3.00366978860333 5.3737428342179 0.182903098246852 0.869169665482171 0.1728
0.17282 3.65687498254136 3.4720690691354 5.27019079234897 0.197224062130261 0.877128698556482 0.17281
0.17283 3.26268133815273 3.57336250379934 5.21034044011705 0.191395603646903 0.852846949287583 0.17282
0.17284 3.31477407100889 3.23188661874913 5.11202373653605 0.186872124137811 0.822565358013141 0.17283
0.17285 3.26779722101829 3.5756498592466 5.13524071363654 0.189666568674814 0.844943407582627 0.17284
0.17286 3.10630001512783 3.42905668556466 5.12210110479272 0.184174720666484 0.845939130862518 0.17285
0.17287 3.61461931801468 3.54506365245576 5.24201614844658 0.198284062291351 0.862648290507684 0.17286
0.17288 3.57939361246033 4.13247455090208 5.09205498767906 0.219152474064193 0.869919640582219 0.17287
0.17289 3.34401511592841 3.90733281977098 5.1827267318667 0.206002380936511 0.883259049850225 0.17288
0.1729 3.12461045719224 3.65303165833706 5.3215489297009 0.193640509291007 0.878366724507083 0.17289
0.17291 3.38655434753897 3.63158015850438 5.24330707803794 0.206273071207881 0.867904972935235 0.1729
0.17292 3.20174296887796 3.58374419081227 5.13080994154402 0.193420458965317 0.840735389093206 0.17291
0.17293 3.34382056435314 3.95387172825226 5.08433977642365 0.206289142203487 0.844881365013913 0.17292
0.17294 3.26550464443625 3.24271406610692 5.15317517725208 0.177321118487753 0.84443233963847 0.17293
0.17295 3.74478656451898 3.70294415844963 5.13511049574073 0.20562179330019 0.866910769094968 0.17294
0.17296 3.71916923119035 3.70285658037352 5.20325320286027 0.209000761674283 0.878488859123208 0.17295
0.17297 3.54323549717447 3.5544237813933 5.07782796184401 0.204296871867537 0.8291671246174 0.17296
0.17298 3.76208140517263 3.53853305570609 4.84068559155756 0.206093643425927 0.849212471610696 0.17297
0.17299 3.47257603840291 3.75326025144053 5.05345499840975 0.204757907930497 0.832908640290475 0.17298
0.173 3.41901566556742 3.85442845524295 5.00666790646051 0.202859915650903 0.845876441317866 0.17299
0.17301 3.70307672981659 3.86944094516165 5.35675417759574 0.209146625315008 0.905190338323746 0.173
0.17302 3.99683143339313 3.80156565057977 5.34151759420121 0.215487987266636 0.914015695639801 0.17301
0.17303 3.28005644951829 3.62004677824625 5.18762843689327 0.190897277738243 0.852954367925766 0.17302
0.17304 3.15592629195408 3.38555652736454 5.12842862342795 0.181356401788357 0.862331123642682 0.17303
0.17305 3.13884608358086 3.29737092355944 5.18935062365396 0.180676801858198 0.80576721152779 0.17304
0.17306 3.11552733634342 3.40759613117972 5.28760526888829 0.177448081049791 0.881752006045496 0.17305
0.17307 3.22832670024767 3.58508999188078 5.41630705186234 0.183267027371701 0.904429308736636 0.17306
0.17308 3.06791860406729 3.43059345251811 5.41498635545258 0.185252049148324 0.898806099455727 0.17307
0.17309 2.9650977721918 3.42563825855099 5.31724693449639 0.180471125558464 0.858454210463888 0.17308
0.1731 2.83560916032974 3.37160440751419 4.99115031067604 0.176953909435455 0.825377136598324 0.17309
0.17311 2.83180763692457 3.19694984762972 5.21533787937333 0.175632278668551 0.848577776749915 0.1731
0.17312 3.45635380542672 3.28335288060798 5.17519629363394 0.18516880539455 0.864936094371166 0.17311
0.17313 3.25275778673902 3.62187753417292 5.28521097202313 0.197419931854354 0.872884436825714 0.17312
0.17314 3.070099571272 3.73259604433993 5.03351937056859 0.184393144527339 0.862175859879192 0.17313
0.17315 2.9486913122541 3.95404673509306 4.89916033179934 0.191221041495888 0.836368151044148 0.17314
0.17316 3.31364369141917 3.92937419491883 4.95444913949472 0.206888694541342 0.837641265185911 0.17315
0.17317 3.37179560301509 3.5479129632031 4.96710842835162 0.190939869437481 0.841144040974327 0.17316
0.17318 3.50477316791901 3.62630733311051 5.23046672361337 0.194813868626639 0.868246575522924 0.17317
0.17319 3.10539803615656 3.23208067618757 5.27196166578355 0.180025069194194 0.859709187832121 0.17318
0.1732 3.68505361544491 3.37811789798003 5.37942948529673 0.187850958728143 0.888841529644486 0.17319
0.17321 3.33691671899493 3.51519061452493 5.21865656813526 0.190666507071373 0.868663758339304 0.1732
0.17322 3.60314892106436 3.82549634177389 5.47008501398456 0.20552565649673 0.927408674164103 0.17321
0.17323 3.58923719186931 4.09899530726005 5.29650637094502 0.223368730185083 0.875794788478135 0.17322
0.17324 3.62272680243639 3.58952211856825 5.19074479032946 0.195046188510605 0.894513476856731 0.17323
0.17325 3.6847634916653 3.60180047231532 5.32012394996033 0.204734865180546 0.881840793198019 0.17324
0.17326 3.39453615592932 3.59220987913734 5.10411452841164 0.200461429024805 0.850043640282581 0.17325
0.17327 3.68917389199169 3.54590254473877 5.26248308673322 0.203609228430112 0.871111315692533 0.17326
0.17328 3.7855567111813 3.72206272943671 5.18747519731026 0.20769159061615 0.879086373456679 0.17327
0.17329 3.79916691019946 3.67422727359569 5.32959597610127 0.215284971948798 0.881053550336333 0.17328
0.1733 3.75085150650964 3.8973493424008 5.04152431012739 0.209054887467448 0.874128632963994 0.17329
0.17331 3.527856450026 3.95891592360578 5.16203885000925 0.207061570483691 0.879373234947715 0.1733
0.17332 3.07671681542031 3.78937867095282 5.20300242581189 0.190326947172655 0.863890220288082 0.17331
0.17333 3.32416785331346 3.62110143964066 5.11395402860513 0.200775532984583 0.842043326033812 0.17332
0.17334 3.14683814524933 3.09013433060227 5.22726060950788 0.173727299789457 0.856424432339043 0.17333
0.17335 3.14464991984352 3.34697973151301 5.04922457524308 0.176584368334585 0.844704914160613 0.17334
0.17336 3.68283096576668 3.67145151883328 5.28080212723752 0.217745229505034 0.862636480208969 0.17335
0.17337 3.37323341239515 3.99428273563405 5.14860354976074 0.206187333345756 0.864989779080845 0.17336
0.17338 3.31295459910964 3.82760010167199 4.91555316864137 0.20528687340101 0.832431239816215 0.17337
0.17339 3.26033812363905 3.64672774221077 5.03577687086709 0.18733388527788 0.826644400374039 0.17338
0.1734 2.95204408782171 3.6065634480974 4.97700627435739 0.179182345314214 0.844080618256105 0.17339
0.17341 3.13842675395259 3.34221052461334 5.18118376872953 0.185244332663707 0.844640595237342 0.1734
0.17342 3.20398949366395 3.33715525465017 5.18918369436174 0.186239963661763 0.853612093511113 0.17341
0.17343 3.65477546681269 3.26230816330917 5.28389285455918 0.191163881524935 0.887478431783266 0.17342
0.17344 3.38990526431433 2.87001326324056 5.39960513391476 0.173021556638521 0.871136639777576 0.17343
0.17345 3.43597713642014 3.42728750496399 5.13137428191774 0.191528979338355 0.842451639846404 0.17344
0.17346 3.30808810249452 3.321688020121 5.11817075725266 0.187160576595677 0.852227386128244 0.17345
0.17347 3.21404672801094 3.26338440766209 4.86387186330694 0.186528424284925 0.801984274541608 0.17346
0.17348 3.522811100934 3.64178096591083 4.97028966613566 0.21153780557413 0.823034675558414 0.17347
0.17349 3.19004745293976 3.48570615599843 5.09944559294209 0.178963873737438 0.842800333691184 0.17348
0.1735 3.37382050114645 3.49737765005702 4.79744193781341 0.19155936363656 0.81425113771793 0.17349
0.17351 3.45256240688089 3.42951329305304 4.87585032218449 0.197472593888069 0.805839252825874 0.1735
0.17352 3.55225037256426 3.36061909170554 4.82515658923599 0.196578997469162 0.787796084493162 0.17351
0.17353 3.3973274715463 3.06823292529671 4.96426158550623 0.175149570150405 0.852893990461351 0.17352
0.17354 3.39025626979094 3.09180645759085 5.39094415318613 0.180291071591385 0.865307493008558 0.17353
0.17355 3.25363149795647 3.29702282740669 5.1149854438285 0.182221527232247 0.843797412707625 0.17354
0.17356 3.38446845256913 3.81221734400242 5.35519358119529 0.189078517341168 0.905998334798101 0.17355
0.17357 3.44612583909336 3.79912804055201 5.13139136255419 0.202535248287474 0.846058950694573 0.17356
0.17358 3.32006040334643 3.55110585345734 5.02473237518074 0.197964522733912 0.833305160589732 0.17357
0.17359 3.44971244014238 3.67922188382902 4.85162920000051 0.204235514903189 0.813457181129271 0.17358
0.1736 3.64524301651322 3.52835211107018 5.0481364926943 0.198036413728898 0.874776931578566 0.17359
0.17361 3.48310109359789 3.31819179269003 4.98576198305627 0.195249712495185 0.81089114382175 0.1736
0.17362 3.35384730936323 3.3452967221657 5.01532996302337 0.182397983586933 0.851570385371232 0.17361
0.17363 3.66523820898569 3.13760423346781 5.10203245064964 0.185725628823573 0.866473299054706 0.17362
0.17364 3.83408419772643 3.34249672834768 4.98939567782043 0.208071758342308 0.850692406873656 0.17363
0.17365 3.66562284176648 3.72604286938263 5.11666923138973 0.204743788131634 0.882277506777135 0.17364
0.17366 3.36343253922797 3.98357480033858 5.36989352637785 0.200252934001797 0.902732244937015 0.17365
0.17367 3.35123476045068 3.72352439754139 4.97700309311446 0.197961149542205 0.834922042209195 0.17366
0.17368 3.55091310180389 3.81176232140036 5.13003223619334 0.209335634567928 0.861277260833058 0.17367
0.17369 3.43635994599156 3.81332557040784 4.94345275451315 0.199223409384822 0.835187848920362 0.17368
0.1737 3.41836971867975 3.41220654993531 4.82077086237087 0.186619422827452 0.820890677691075 0.17369
0.17371 3.74880616554585 3.60952897561438 4.90649662821253 0.205632849693028 0.81706648923288 0.1737
0.17372 3.20477988572123 3.23098356199359 5.05857058589801 0.172430462174588 0.840425125091098 0.17371
0.17373 3.3214181045085 3.47860248760894 5.02313045850046 0.192671896060532 0.843175594139319 0.17372
0.17374 3.17751337451663 3.53580172548841 5.24852081092482 0.191740662814895 0.838939757076443 0.17373
0.17375 2.99804084296553 3.53052415184447 4.83616123788619 0.180800667817244 0.820914686368429 0.17374
0.17376 3.35529181442482 3.93248756729497 5.00864582338989 0.208872897469467 0.855265964578417 0.17375
0.17377 3.08499982878353 3.68522791348965 4.95573329141016 0.184592575012367 0.846501824858635 0.17376
0.17378 3.14533004400191 3.61076297451089 5.09176682606919 0.191020172846642 0.852780830897545 0.17377
0.17379 3.3262198759455 3.29489669287849 4.9139716925168 0.187351967945435 0.809860516331773 0.17378
0.1738 3.13186010581548 3.25324691335313 4.96521741797205 0.179415796763378 0.80433153177901 0.17379
0.17381 3.12111388996234 3.24675517064073 4.95129123811023 0.181369780891291 0.83476827415512 0.1738
0.17382 3.37962947914979 3.54812299519104 5.41269481596507 0.19198390216094 0.888170782963908 0.17381
0.17383 3.37862812398194 3.19016947569143 5.38032190800386 0.17982751000392 0.881534557303713 0.17382
0.17384 3.51385655907939 3.14433127694228 5.55309862866354 0.189566642789959 0.88123325530053 0.17383
0.17385 3.29831799111601 3.4884609737213 5.31629977060031 0.193622013381144 0.871356165862504 0.17384
0.17386 3.08440374300793 3.42544831173916 5.05040642761194 0.186156782446967 0.843151828241448 0.17385
0.17387 2.97401962784051 3.72055905321075 5.12440284013286 0.177676447220162 0.853623156922535 0.17386
0.17388 3.20812392357896 3.4467343449622 5.11314824154391 0.188932378732591 0.82056132974071 0.17387
0.17389 3.65442656240731 3.56838943631311 4.94378875099937 0.200010054958868 0.840207265112161 0.17388
0.1739 3.62685926128706 3.65355282393227 5.04755457232978 0.204740191063273 0.832035078040649 0.17389
0.17391 3.48598546537476 3.74408598746657 5.1683508095169 0.207598855924839 0.869710154287998 0.1739
0.17392 3.22496688681544 3.86160910170089 5.20509445020894 0.190374940749748 0.867207105226909 0.17391
0.17393 2.93814583633214 3.73698092578078 5.05840601702364 0.186259105715067 0.848271588041139 0.17392
0.17394 3.17322398826275 4.04641293781196 5.27860844188117 0.205879096571776 0.879594856557268 0.17393
0.17395 2.9930992764825 3.95508805731402 5.05066519664523 0.191300961447655 0.860166527850877 0.17394
0.17396 3.4900190340132 3.91880148507653 5.03206459796889 0.206692155182668 0.871980644567582 0.17395
0.17397 3.67205100393899 3.68612808152512 5.00020021374257 0.204474896774049 0.862301164134945 0.17396
0.17398 3.73191608986333 3.68788220362181 4.89611769121399 0.202347638720358 0.826818789884757 0.17397
0.17399 3.22027868223408 3.49514192798308 5.06763432637477 0.185301884817917 0.843375269314103 0.17398
0.174 3.06358383583754 3.6836986358847 5.11954438247883 0.190272848393202 0.851425611365912 0.17399
0.17401 3.00055651949112 3.93313239369437 5.24960184612124 0.19088421586116 0.873255976426906 0.174
0.17402 3.21998569907458 3.89766217445119 5.37233741465239 0.204367677218494 0.88149618590857 0.17401
0.17403 3.2585150567901 3.9826231434365 5.38396808871326 0.199241930000658 0.917468457865718 0.17402
0.17404 3.69791915978747 3.63961874911624 5.28199237342907 0.208945168921707 0.891993425695134 0.17403
0.17405 3.22396940271907 3.32884648697339 5.15287097729594 0.188026845962232 0.839937846922437 0.17404
0.17406 2.92179226962829 3.08562461299669 4.90554475141912 0.170346930953009 0.807406771710815 0.17405
0.17407 3.24954544308946 3.42229868937864 4.97319051436885 0.192677667541666 0.83505921528212 0.17406
0.17408 3.53323661779978 3.76886408462214 5.11550076452521 0.206190077578173 0.869878415317991 0.17407
0.17409 3.33056794437768 3.86926716691497 5.12086097194863 0.203284918611323 0.847857313974322 0.17408
0.1741 3.09002808195201 3.92429392228616 5.08200467340344 0.193584813786794 0.862327491135619 0.17409
0.17411 3.26449951913258 3.57469638761907 5.11452954137005 0.195594656588744 0.824981559802376 0.1741
0.17412 3.08645968871206 3.4606460260172 5.04676436046371 0.185792201254311 0.8445160322129 0.17411
0.17413 3.28966424420402 3.19738797779916 5.15761653708216 0.178149472353476 0.846843508497018 0.17412
0.17414 3.40137839362973 3.45372232138737 5.21084172947734 0.18977547269626 0.849687406039607 0.17413
0.17415 3.16965005286359 3.5522049247769 4.87544044664488 0.18913753574109 0.826229133672406 0.17414
0.17416 3.04943591019876 3.64851813397102 4.89149857473213 0.190883794729901 0.838116597200084 0.17415
0.17417 3.30046350306777 3.70479623252848 5.10728624618371 0.198657893307712 0.835416326701175 0.17416
0.17418 3.34002329569917 4.01996113497176 5.20186067486427 0.209436548535726 0.871039683988864 0.17417
0.17419 3.03987635702559 3.8366000883539 5.43429324611355 0.191044222057869 0.912699721978037 0.17418
0.1742 3.02201365729286 3.67701816663932 5.39157027565855 0.187759997656319 0.860022678240711 0.17419
0.17421 3.03756282268718 3.28238240488836 5.11914698088683 0.170258368385479 0.870458002525902 0.1742
0.17422 3.4974314046319 3.57679905779563 5.0473773875331 0.20093398190441 0.856881374143035 0.17421
0.17423 3.51119655867575 3.51381624087486 4.97030570272554 0.204807845646969 0.835200178097867 0.17422
0.17424 3.4267257177359 3.77087426228532 5.02390331248007 0.19972732561292 0.846056522374694 0.17423
0.17425 3.22902853192511 3.73664464427579 4.98972068596001 0.197451636776647 0.86353896960641 0.17424
0.17426 3.05597858439403 3.51503046107319 5.13253021129344 0.184902602935533 0.838787267307181 0.17425
0.17427 3.32405767021449 3.86165589621587 5.29852886564764 0.206708645714553 0.87959043783018 0.17426
0.17428 3.55316764730131 3.68028431396537 5.18864128088003 0.206195792635124 0.848586263859322 0.17427
0.17429 3.77445570310136 3.86179739211655 4.78548861228942 0.213040010171723 0.864878677247468 0.17428
0.1743 3.41328210240855 3.50649571627392 4.85605618868625 0.195697519793283 0.813558961554367 0.17429
0.17431 3.93306922991622 3.48249995054105 5.07812037623438 0.206860951672874 0.854448933590574 0.1743
0.17432 3.80618179387018 3.11979169841531 5.18546831976682 0.190772501666447 0.862682642929351 0.17431
0.17433 3.78523581781158 3.15513820885131 5.04585615407994 0.19490098357085 0.85158514103482 0.17432
0.17434 3.35879278310028 3.04784783479632 4.82365546715188 0.184060993123545 0.803863234386826 0.17433
0.17435 3.43488608344407 3.41022557521974 4.85032377505084 0.188610847323158 0.816254398808569 0.17434
0.17436 3.61343987117705 3.50938223865539 4.96163958008694 0.200129340146498 0.839609853637019 0.17435
0.17437 3.65026922431261 3.75952052585318 5.1346596679826 0.209764327753989 0.866438701873151 0.17436
0.17438 3.6504023564131 3.59729979085805 5.03965536501056 0.207649948916342 0.837046722530684 0.17437
0.17439 3.05779183976595 3.13319394176918 4.92315715800754 0.183145211580672 0.803392716246271 0.17438
0.1744 2.46543264118486 2.88152568313116 4.51943049971136 0.153111058137021 0.698557588029559 0.17439
0.17441 2.92063847735883 3.30551619565059 4.16804110603124 0.175533478115255 0.718032677047058 0.1744
0.17442 3.03442697362773 2.80435383823266 4.38856180238705 0.171381673397888 0.721424415932925 0.17441
0.17443 3.26998163004155 2.96019456495315 4.67436415028917 0.171856975229381 0.797653916835747 0.17442
0.17444 2.78814506615719 2.91010476680551 4.82011985674283 0.156241536391957 0.790753294069694 0.17443
0.17445 2.56085952761264 2.93819810944528 4.80238486701558 0.15402557488297 0.771916848727013 0.17444
0.17446 2.77253178441458 2.75921550134662 4.75141492082632 0.156391228352508 0.772727538283882 0.17445
0.17447 2.7466217538376 2.82025610237301 4.59168596846401 0.166202472495064 0.734335660171608 0.17446
0.17448 2.41018606569516 2.47211592689219 4.58271841378341 0.12378449415494 0.715683498841185 0.17447
0.17449 1.9399327135828 2.31779294564002 4.43247730715317 0.121256996834017 0.697491166327674 0.17448
0.1745 2.33242602492401 2.55393236745978 4.22928573476928 0.138140583569042 0.665779681757909 0.17449
0.17451 2.35521870888195 2.66964126801255 4.18051078047638 0.140431128890144 0.690846564219108 0.1745
0.17452 2.19399804695789 2.79318940676141 4.15425264702882 0.13566117975502 0.681398123486681 0.17451
0.17453 2.43184162659066 2.52507691435818 4.16196187156457 0.133833412462021 0.67716252671095 0.17452
0.17454 2.19451229632049 2.51451845399984 3.9860555030943 0.130043009891819 0.639571469282738 0.17453
0.17455 2.30151920728271 2.37229388275702 4.20716340988786 0.134658657314323 0.646841452759869 0.17454
0.17456 2.25932317679746 2.22919485529747 4.06475604426595 0.115890744156995 0.666572821842492 0.17455
0.17457 1.94806195475975 2.48394661973544 4.01370619033568 0.121682381582805 0.654776991443654 0.17456
0.17458 2.18575371619808 2.70826939022059 3.90026642994655 0.140511091313051 0.64783654659288 0.17457
0.17459 1.85419940738527 2.81154261725264 3.83901332500352 0.131495323926413 0.617567330807699 0.17458
0.1746 1.91020573299225 2.81910109227056 3.61000755786503 0.135445267720342 0.612583456901443 0.17459
0.17461 2.32123848365208 2.51199693386994 3.853742252472 0.130802202606497 0.639934081584149 0.1746
0.17462 2.06497557346741 2.44307847601126 4.06471845381216 0.123250165203316 0.652750424250393 0.17461
0.17463 2.3486633729001 2.19646516556277 4.14125230385285 0.126555929743057 0.674371095077903 0.17462
0.17464 2.16767913064331 2.24519980171564 3.99075030608675 0.11546792347908 0.632297650967129 0.17463
0.17465 2.08171463435561 2.31391862399491 3.80983034296188 0.131532886328687 0.617883734117445 0.17464
0.17466 2.12731081276433 2.47848992451531 3.85953223228658 0.126071045800763 0.635350556305194 0.17465
0.17467 2.08101745742244 2.26492258250278 4.04948069649726 0.118760382857854 0.631065911913452 0.17466
0.17468 2.24222206731931 2.34361769084805 3.81471050904555 0.139164799409378 0.61380360817595 0.17467
0.17469 2.354475347641 2.71281930444827 3.78820377392943 0.142851982369928 0.626413881918731 0.17468
0.1747 2.21043424539416 2.39643618600309 3.71250772033842 0.131075519848917 0.599056193139844 0.17469
0.17471 2.23293656934329 2.22595281083091 3.57675588783165 0.124147949863278 0.597199183627673 0.1747
0.17472 2.30222164153983 2.24428603146755 3.76720569885241 0.123607988388975 0.630670328345731 0.17471
0.17473 2.47179346694745 2.48983115012081 4.05349305770459 0.145382009734007 0.637502661780766 0.17472
0.17474 2.29534064722703 2.89411165718238 3.99758051066724 0.147315855264312 0.662361534261255 0.17473
0.17475 2.44703142074469 2.75406873675595 3.7901761409525 0.139314962354621 0.623574961927 0.17474
0.17476 2.15125890915435 2.3664602721653 3.7711894006693 0.118329898395239 0.647424397063524 0.17475
0.17477 1.95018823587747 2.47039718098888 3.96736438912381 0.122655933074031 0.626151116216454 0.17476
0.17478 1.90817280889256 2.33143254311034 3.72763734658688 0.120678016216382 0.607647002034435 0.17477
0.17479 2.05342118523781 2.34272749444095 3.50289608177537 0.126597831051379 0.588835746816594 0.17478
0.1748 2.0083306407385 2.05007351776612 3.46833781743477 0.116522450014285 0.555787951304306 0.17479
0.17481 2.19075199862073 2.20154318608309 3.40510495480366 0.117455150498943 0.566488413608265 0.1748
0.17482 1.97399899724597 1.94667469461185 3.39778766731674 0.10968864928371 0.549180909270841 0.17481
0.17483 1.8551230718154 1.92832085705151 3.41567582975824 0.110757704248122 0.534835765694013 0.17482
0.17484 1.85088387878223 2.21031585962107 3.48893482212259 0.113790587097387 0.564179096049182 0.17483
0.17485 1.83061200848055 1.96612483224631 3.56639810880427 0.0985090018873526 0.566372949473121 0.17484
0.17486 1.92452187603286 1.87937266912426 3.27861734431158 0.116958243879149 0.523517550477991 0.17485
0.17487 2.25953776117455 2.26278730508223 3.09405203312489 0.134086139906091 0.522956529396495 0.17486
0.17488 2.23206002493967 2.2050362651067 3.08726353166811 0.121249435075746 0.541250475665132 0.17487
0.17489 2.02246313231054 2.26674604928171 3.20438399155038 0.123361840334627 0.505474707428956 0.17488
0.1749 1.85640152478396 2.25256579289305 3.25817339839165 0.10543287729932 0.551927507803141 0.17489
0.17491 2.09516813711418 1.75337479922942 3.52042876859885 0.108162521232352 0.559542250871998 0.1749
0.17492 2.3001601601685 1.96252687456805 3.47131376502822 0.119300431062664 0.548967223748429 0.17491
0.17493 2.08481659457699 2.23984539247516 3.50162871397342 0.115428652590495 0.595095444190184 0.17492
0.17494 1.61571525008813 1.87996789025126 3.58927554060851 0.102572125822156 0.544311752465761 0.17493
0.17495 1.37142650366705 1.68589393101594 3.4814546897837 0.0782882659509879 0.537704883846623 0.17494
0.17496 1.44837593595123 2.15122991739185 3.55944632240971 0.102743686141051 0.559009031309366 0.17495
0.17497 2.08185476394875 2.08326599935313 3.52177268214032 0.122759562774714 0.589367850642411 0.17496
0.17498 1.92611109009854 1.71413541597209 3.57513157390654 0.10015091129533 0.561251824342792 0.17497
0.17499 1.76860121410458 1.92647479442586 3.32533728702093 0.107247396160714 0.518516595188095 0.17498
0.175 1.6503370031186 1.81847700031171 3.05896443128011 0.090264770444181 0.50186864367704 0.17499
0.17501 1.80281914214387 1.94613900499549 2.91839762916806 0.109449154428787 0.495220331262126 0.175
0.17502 1.81107125810765 1.78239868143371 2.68855703873608 0.097709577239277 0.462812840070153 0.17501
0.17503 1.79857102411367 1.47798295454113 2.98534071852138 0.0864496535443969 0.459461579784253 0.17502
0.17504 1.76896739219128 1.57647992499293 2.96000021999914 0.0986471692991604 0.496945865392353 0.17503
0.17505 1.72432626221712 1.158313138179 3.05021494295731 0.0756996498278892 0.466913352082138 0.17504
0.17506 1.7802774403205 1.10425612187155 2.85856002679924 0.0760890083358081 0.452305460628995 0.17505
0.17507 1.62410850650792 1.4168756115789 2.79680037698966 0.0847234252445693 0.471160295133404 0.17506
0.17508 1.61345509396877 1.11206281195338 2.87131682942718 0.073553848193598 0.450756623229614 0.17507
0.17509 1.368807129987 1.65336090970049 3.17946091016019 0.0855484939664733 0.51324684849145 0.17508
0.1751 1.57840003587599 1.64471576816736 3.29891168078784 0.093103589391758 0.513428793610664 0.17509
0.17511 1.70373683821101 1.49243617473625 3.42669285847604 0.0918076962845762 0.537275485635683 0.1751
0.17512 1.84051674894024 1.2901268188562 3.20843111846616 0.0841399656932639 0.524372209245171 0.17511
0.17513 1.41469492545108 1.22323124646099 3.06081320284006 0.0808147287687217 0.478345197352528 0.17512
0.17514 1.32753987353534 1.45924205578414 3.03537885621707 0.0771079527905599 0.481197494400219 0.17513
0.17515 1.45554725085786 1.37123713543904 2.9761852656718 0.0828303976347483 0.461874723664219 0.17514
0.17516 1.73904323219061 1.44801693697068 2.9821303412142 0.0880988742170518 0.489907909450309 0.17515
0.17517 1.75695071169921 1.5687855037651 2.90295119690096 0.0910146503229025 0.47546187209302 0.17516
0.17518 1.93066671627442 1.396918686102 2.84666968739756 0.0937075665972673 0.457658273845717 0.17517
0.17519 1.4232750942704 1.1005809085588 3.03620925354857 0.0679271115593342 0.463600606060524 0.17518
0.1752 0.965466198705664 0.886066201971365 2.94069209863331 0.0528862544180638 0.445043157179598 0.17519
0.17521 1.22943243850256 1.24227938486223 3.03092947211418 0.0718505356021593 0.46868497114161 0.1752
0.17522 1.55315543002311 1.57190007069165 3.01143939512038 0.0879924299559926 0.467933994252791 0.17521
0.17523 1.51327199348989 1.10688342254 2.87046449344926 0.0770543008879015 0.460686767882358 0.17522
0.17524 1.44586117702544 0.987892818827498 2.9039461618004 0.0665960508827689 0.459917626204031 0.17523
0.17525 1.30089012090992 1.45308585730342 3.00934484701962 0.074345728492252 0.477673546694109 0.17524
0.17526 1.62565039873891 1.61946737171243 2.7634915629916 0.0841232499891144 0.46853956123018 0.17525
0.17527 1.7609997301557 1.34480406387775 3.12769584275287 0.0864736843219401 0.486628310687653 0.17526
0.17528 1.56712749541905 1.02922474143888 3.39510669155271 0.0651386712069226 0.520718310517753 0.17527
0.17529 1.62772053903225 1.07649695353507 3.46743184233547 0.0813992229452153 0.504436976994369 0.17528
0.1753 1.42817808016404 1.53243255211759 3.21043602809609 0.0851996325573718 0.5224511922986 0.17529
0.17531 1.79681292086394 1.40229060336996 3.10883410777643 0.0847690382223436 0.48213552746458 0.1753
0.17532 1.61750211376435 1.25955031970969 2.75772919770295 0.0900668113166587 0.41049446530971 0.17531
0.17533 1.38469759487124 1.03897183361331 2.74722209457918 0.0693997898966329 0.441078900203485 0.17532
0.17534 1.40079975163357 1.01366133068921 2.75042125616697 0.0675159974112341 0.416783723803459 0.17533
0.17535 1.32579601073343 1.29463228848949 2.75961936687224 0.0738981179248048 0.425905245284483 0.17534
0.17536 1.10288631281308 1.23588091948391 2.97684995218478 0.0643806206032767 0.461910680060849 0.17535
0.17537 1.23880450563983 1.38987849644376 2.96323099962569 0.083933281663144 0.463403574189119 0.17536
0.17538 1.2529650389857 1.4997038731793 3.14683219433006 0.0769038906238577 0.490885629328059 0.17537
0.17539 1.42974424577296 1.27438947362087 2.99808691782235 0.0756628947692936 0.473631388746737 0.17538
0.1754 1.2030605835353 0.978033241802279 2.88805399227751 0.0676653672565277 0.433140145186104 0.17539
0.17541 1.43044480450065 1.267877493474 2.98758877850276 0.0737698745636759 0.455935118987022 0.1754
0.17542 1.53017096183495 1.45077792868907 2.90280075485407 0.0740341035972352 0.457772934858646 0.17541
0.17543 1.54501757346255 1.54316009424442 3.08491441253356 0.0899037119163728 0.495713851074741 0.17542
0.17544 1.49674703211686 1.60374505134828 2.98118461051904 0.079556086049503 0.466604511245764 0.17543
0.17545 1.47886677342574 1.76997087191 2.70098472402428 0.0937136681936289 0.435009149401503 0.17544
0.17546 1.23322244307171 1.55732174079316 2.92469107359446 0.0836609304042058 0.474736445596293 0.17545
0.17547 1.57556360540902 1.15467571159317 3.12038653118118 0.0771877527782244 0.464418583516146 0.17546
0.17548 1.81116275689548 1.22131459330621 2.98546385291135 0.0840286906240788 0.4694210267681 0.17547
0.17549 1.56055250753361 1.76173107067216 3.11214570912958 0.092684931592403 0.507132826816336 0.17548
0.1755 1.84991942084021 1.82669878007858 2.90958787190848 0.106920144393124 0.455607829065943 0.17549
0.17551 1.55425795715529 1.51496579481244 2.60977273995061 0.0825486742145261 0.428908482421713 0.1755
0.17552 1.4108217718997 1.34998678157785 2.87510512362367 0.073088902432995 0.48347732734092 0.17551
0.17553 1.23730700308596 1.12294883358289 2.97050458216539 0.0651341886106934 0.437902180962107 0.17552
0.17554 1.72022929771396 1.35082926790589 3.28810955767225 0.0891262962907376 0.518428606283502 0.17553
0.17555 1.34397105479531 0.991639510076162 3.2215382155523 0.058190889461265 0.48576788010258 0.17554
0.17556 1.60602480966905 1.16873017896303 3.10889383985038 0.0814163309183382 0.483414786600483 0.17555
0.17557 1.09544995441085 1.04809994877361 2.82554565078627 0.0508367572936062 0.442170418332434 0.17556
0.17558 1.29265921659448 1.11635996187285 2.98821523913545 0.0653617301128366 0.488218988879702 0.17557
0.17559 1.67923861751672 1.71484703971952 3.33394170712012 0.0995150189092528 0.518101696477577 0.17558
0.1756 1.58545040038337 1.32993632249342 3.2691506418856 0.0874260706008242 0.485952023755346 0.17559
0.17561 1.66512875898233 1.50737150964761 3.03025053490033 0.0910143796585464 0.478012660590051 0.1756
0.17562 1.41264470007269 1.22381763149971 2.78913611373402 0.0696237474904279 0.458401206636592 0.17561
0.17563 1.21704485733195 1.07711307420996 2.7797859233031 0.060099797875184 0.421890784375309 0.17562
0.17564 1.67509658638929 1.23101104352058 2.92725018410488 0.0885149263869873 0.443947483396901 0.17563
0.17565 1.33635092200884 1.25389948230016 2.93900667357837 0.0751108563817564 0.474206327050141 0.17564
0.17566 1.66894962743171 1.67131527916724 2.95559275243119 0.087501700431491 0.472240825199425 0.17565
0.17567 1.38631968665415 1.46570567161695 2.97240663489402 0.0755808899279303 0.474406960025095 0.17566
0.17568 1.49098891420227 1.59122734690269 2.92692169845224 0.0884655271976175 0.461645352899393 0.17567
0.17569 1.28006834697122 1.54781411078088 2.78454651566713 0.0818788611105962 0.450702742063511 0.17568
0.1757 1.10487643882591 1.45004247915349 2.88699218357281 0.0701860772872829 0.466051009514237 0.17569
0.17571 1.60663379038129 1.5069115660356 3.09518406313887 0.0834191545661616 0.498911643492578 0.1757
0.17572 1.48517222940011 1.44479785372196 3.23320821596894 0.0883890099813376 0.485136927948583 0.17571
0.17573 1.7715763663506 1.97929668964563 3.19159012364837 0.110281969636495 0.514189231510444 0.17572
0.17574 1.66065936446125 1.79434459374125 3.23669912307648 0.0968659095420043 0.511634672579548 0.17573
0.17575 1.08611254821895 1.39711727990542 2.99505088118717 0.0736578226688738 0.447301662569534 0.17574
0.17576 1.19531862406528 1.30607462093696 2.87100746107901 0.0694547826988461 0.454247216183652 0.17575
0.17577 1.27759020324723 1.09611634085584 2.67230492602557 0.0696609309240514 0.419310248467493 0.17576
0.17578 1.35867756533506 1.6564512706236 2.90054406306296 0.0908780283765723 0.481214769587359 0.17577
0.17579 1.44466681911496 1.54994365330908 3.00682261599577 0.0818529965465225 0.451024577658767 0.17578
0.1758 1.09243192260349 1.39148877046445 2.87614849048851 0.0702086348833242 0.459413820817447 0.17579
0.17581 1.43951674914807 1.58228752626574 3.10560859215784 0.0783537194290347 0.487062105700759 0.1758
0.17582 1.34042531137243 1.68419331909821 2.93527724172987 0.0867540414827809 0.482500427946211 0.17581
0.17583 1.46854901422734 1.374789362365 2.71495766242227 0.0785406967441586 0.409751976997698 0.17582
0.17584 1.66702334732589 1.28746607799746 2.9660158792887 0.0798194458005826 0.46817947576333 0.17583
0.17585 1.64719339899707 0.827548756010537 3.15578159998769 0.0720835393570883 0.503083132963813 0.17584
0.17586 1.65386324217564 0.959915772390661 3.1638111990492 0.0685736734643029 0.491692429615643 0.17585
0.17587 1.6264800254504 1.25918950053915 3.00488788581005 0.0808839253531384 0.492119714058496 0.17586
0.17588 1.60193207763545 1.07274829123349 2.93705117273417 0.0757431324428965 0.457205417741887 0.17587
0.17589 1.30746319018526 1.10447936873114 2.87072346693172 0.0721350441360563 0.458400466459217 0.17588
0.1759 1.1124826306216 1.05735234543999 3.0443317078296 0.059320250135005 0.441243769522386 0.17589
0.17591 1.11305119290121 0.964105719461555 2.91377102258193 0.0494771347250236 0.440413926005359 0.1759
0.17592 1.49687243020723 1.26269874919461 2.88351323036663 0.090260018847933 0.439689271403915 0.17591
0.17593 1.69421908992423 1.37474755463976 2.89451315075862 0.0865535178102427 0.4696855938559 0.17592
0.17594 1.6620265296583 1.04918169861799 3.0193955090588 0.0652139132871383 0.455259500596727 0.17593
0.17595 1.20554101066252 0.835314812874545 2.96636850624072 0.0565204518828745 0.457092252310862 0.17594
0.17596 1.06835236109678 0.799738147259358 2.8797499576038 0.0591378294771342 0.42562323256152 0.17595
0.17597 0.966324448015484 0.929930946173449 3.02946825020883 0.0439122839351715 0.456401247202715 0.17596
0.17598 1.48058618498801 1.12305620522047 2.82258410349472 0.0810669176329534 0.448501226062358 0.17597
0.17599 1.53831722999861 1.42562360510225 2.92851294157316 0.0843004853438524 0.461715757325488 0.17598
0.176 1.2886355166377 1.48338572188691 2.8640607756659 0.0820976606516721 0.436153576378851 0.17599
0.17601 1.27296537118072 1.12226938215771 2.90236740347065 0.0653401940283222 0.461567086563172 0.176
0.17602 1.26821024318494 1.00122036024777 3.01871093870335 0.0703290138597923 0.468466383270059 0.17601
0.17603 1.31606996135375 0.885685911331215 3.21254470786466 0.0671763182952505 0.47748773254821 0.17602
0.17604 1.52285470332943 1.16020158454644 3.07530537897838 0.0665623159094861 0.485354032154581 0.17603
0.17605 1.58450179992648 1.51673351858027 3.00303536360621 0.0877890754965121 0.466324213270768 0.17604
0.17606 1.56945452985597 1.49621275663754 2.92595822010678 0.0839114539507862 0.443261526009561 0.17605
0.17607 1.50979917450487 1.52471453336575 2.98634699710967 0.0876336931862062 0.477581718542908 0.17606
0.17608 1.34439655199688 1.2935596757283 2.85954831964123 0.0787176628067241 0.415293108249293 0.17607
0.17609 1.04393385379334 1.08189598549343 2.82712007476956 0.0548536062288374 0.437343996576767 0.17608
0.1761 1.46386752612951 0.997104481651231 2.9102026449122 0.0618554317128324 0.488903937527468 0.17609
0.17611 1.96327422687575 1.05484285637913 2.95471963607591 0.0868200804640099 0.487533714985827 0.1761
0.17612 1.77980691052048 1.03246279757209 2.89096239653374 0.0753348662028562 0.458664529477495 0.17611
0.17613 1.81257282390565 1.03035930904499 3.19207909355321 0.0767306353494785 0.51174675144976 0.17612
0.17614 1.19043915548489 1.01391261284395 3.11407793697539 0.0558152626822524 0.451212544055938 0.17613
0.17615 1.26730239293533 1.21989343839187 2.90456660227514 0.0753941821652042 0.443801482132926 0.17614
0.17616 1.46917881307381 1.13057424789454 2.74938626651361 0.0702440172543768 0.431750014377675 0.17615
0.17617 1.70422832702629 1.48143351623734 2.89533541052901 0.098320563334353 0.455012578812226 0.17616
0.17618 1.62611414984365 1.27453133644779 2.90537441194536 0.0868818838928193 0.46032740452785 0.17617
0.17619 1.70783948927371 1.39333859643821 2.77429091332707 0.0863662959384539 0.445532398700477 0.17618
0.1762 1.34015570308378 1.36325049254154 2.77823319893282 0.0749995189649073 0.437947659487612 0.17619
0.17621 1.34016514451196 1.17482837882276 2.84746988868595 0.0702940920932243 0.474399178241392 0.1762
0.17622 1.31275292920012 1.31190494252952 2.94719516533764 0.0649929138316902 0.482948213780363 0.17621
0.17623 1.38035324303367 1.39139244902342 2.81574121828222 0.0733811260143487 0.435730016848936 0.17622
0.17624 1.21566346456889 1.18392825695974 3.02117882623369 0.0734723818399787 0.47184617082061 0.17623
0.17625 1.44737149846477 1.09511982461563 3.20123758302292 0.0719657661682483 0.474312933070821 0.17624
0.17626 1.4553281205908 1.19555008000855 2.98578513529108 0.0705261608052685 0.448239972726461 0.17625
0.17627 1.34804810688446 1.10590319642829 3.13958718578914 0.0651931484546159 0.487556132952616 0.17626
0.17628 1.10587501532821 1.4164588376859 2.81665401070538 0.0685249254266686 0.438118368973641 0.17627
0.17629 1.32655690677276 1.29367846868914 2.88936513610339 0.0810028871980705 0.451913858979059 0.17628
0.1763 1.05624094755058 1.34836498953925 2.95618582954302 0.065492293471904 0.467049255683681 0.17629
0.17631 1.23055744565564 1.3126933198906 2.95455155908265 0.0721284694885707 0.488036283570542 0.1763
0.17632 1.56418884295347 1.56993201807969 3.07625716143629 0.0872622094694105 0.486141071193254 0.17631
0.17633 1.55846387661895 1.43734463794144 2.96532015205531 0.083895793782924 0.47481196072185 0.17632
0.17634 1.5418981946945 1.5370583773409 2.92314009494282 0.0869737675302233 0.473148286342873 0.17633
0.17635 1.44578636101835 1.48327471713615 2.90780574253026 0.0798600384415544 0.477944199352947 0.17634
0.17636 1.55885999711972 1.11990914673931 2.97333046527056 0.075323165688887 0.466621769158898 0.17635
0.17637 1.56456817867017 0.981465601538598 3.04049926270344 0.0759348143331783 0.444514091273667 0.17636
0.17638 1.65110633910258 1.37817844137965 2.81548121409732 0.0811197521813663 0.457053160712848 0.17637
0.17639 1.70999433405548 1.93334144865761 2.83427693110054 0.0974064352966779 0.45562451496786 0.17638
0.1764 1.79135996505403 1.88877939379596 2.89816639906028 0.10320168786727 0.496432249312066 0.17639
0.17641 1.56559948268179 1.51576692158904 3.16828150417959 0.0878676907292047 0.491485587432619 0.1764
0.17642 1.17377228753965 1.40084812546253 3.03897268525367 0.0785607709436765 0.487276468710528 0.17641
0.17643 1.44608390472997 1.13881384330035 3.09314626336748 0.0730483000345292 0.461837973419565 0.17642
0.17644 1.7263076141383 1.26486848344 2.9066056987736 0.0808659803524987 0.467624616975172 0.17643
0.17645 1.57343485775389 1.76767852575789 2.96649317803782 0.0940159412382088 0.474486426203074 0.17644
0.17646 1.7091807068459 1.8614720479536 3.18971261231453 0.0957517216312846 0.508232601213245 0.17645
0.17647 1.46609739725227 1.77811224201959 2.83604839458744 0.0901508423272134 0.474432110867065 0.17646
0.17648 1.65473765304785 1.58970123105915 2.92661752504613 0.0975853249450472 0.468373479573763 0.17647
0.17649 1.5382853644247 1.44397241279443 2.77744815616555 0.0852472831192123 0.43515188704332 0.17648
0.1765 1.46139316415085 1.55016376110819 2.88992743204263 0.0988951668357357 0.442813345483626 0.17649
0.17651 1.55276312107831 1.51121110208376 2.90274249518336 0.0847245819500959 0.466478704158731 0.1765
0.17652 1.45571299286939 1.09208660581483 3.10536805155441 0.0707218653076692 0.494376160055858 0.17651
0.17653 1.58059418748389 1.44164822045686 3.08113717321721 0.0886395418784305 0.462599986019018 0.17652
0.17654 1.3246865573362 1.58763770209188 2.97360361044765 0.0863420536986304 0.475315749815016 0.17653
0.17655 1.60900922893393 1.060270235218 2.99279325918679 0.0722235450632957 0.469678840667479 0.17654
0.17656 1.56632145691501 1.1774570060725 3.02032729421382 0.0833872051155309 0.46493025271615 0.17655
0.17657 1.30068088870862 1.29554575323324 2.98927574120637 0.0779667173816232 0.475993713040792 0.17656
0.17658 1.42267148378586 1.52995767621309 3.16872409925136 0.0808534404679748 0.487141936108138 0.17657
0.17659 1.89907438040976 1.61186395337013 3.09436383034662 0.107952185591274 0.479468474567312 0.17658
0.1766 1.67587543663584 1.5500487175324 2.89365493485213 0.0870838096549794 0.454089220992343 0.17659
0.17661 0.970440720743379 1.29865855724128 2.76781081162959 0.0655308377684007 0.439670672305362 0.1766
0.17662 0.705586659955281 1.29842874085653 2.7394654094562 0.0523639549441266 0.42224499538672 0.17661
0.17663 1.22447962018018 1.3650159822602 2.93331867021398 0.0649824555157394 0.462958303016636 0.17662
0.17664 1.48420666028745 1.35363168450135 3.16875602767719 0.0854365594853065 0.475044752305614 0.17663
0.17665 1.38938950804657 1.22792770405348 3.37992919536171 0.0723356192528147 0.525514514189332 0.17664
0.17666 1.4478261518953 0.944909295857557 2.94437685754369 0.0658592833695046 0.452116985746369 0.17665
0.17667 1.27409451393052 1.16975392943938 2.90263973647602 0.0615534071388786 0.464535933802447 0.17666
0.17668 1.21527145347205 0.983630367208399 2.91308116948553 0.0661685173115817 0.441077232280691 0.17667
0.17669 1.51558944139744 1.39815759936057 2.94683978569021 0.0764218388001181 0.478915958980931 0.17668
0.1767 1.72981200071299 1.41537045303607 3.00058177904257 0.0896563157141834 0.462424766575602 0.17669
0.17671 1.2848948861061 1.29222312478067 2.79094658990499 0.0758552131289157 0.435087598514109 0.1767
0.17672 1.52249209926993 1.15450764973527 2.71757003853298 0.077884112661737 0.453104878449288 0.17671
0.17673 1.51084596678563 1.26418462884911 2.87314935928519 0.0740928098583021 0.451575587454895 0.17672
0.17674 1.53217031455178 1.48353382677238 2.78278328627134 0.0835734292010638 0.446292887670682 0.17673
0.17675 1.5251373265859 1.41850946598779 3.01097528436703 0.0820249503114091 0.468346167557087 0.17674
0.17676 1.50441322610243 1.30532665459007 2.97651396204303 0.070320848917106 0.470636351012232 0.17675
0.17677 1.27649938014761 1.25673613250319 3.25186196601596 0.0639032951645449 0.496822017127241 0.17676
0.17678 1.1557843834279 0.974663312897783 3.19932777917777 0.064740352016724 0.486196588627311 0.17677
0.17679 1.46528022504889 1.39882700050225 3.18931433740573 0.0785104892954154 0.521434839521985 0.17678
0.1768 1.62300381608802 1.61032640765036 3.16083094209264 0.0952394359140783 0.485701594105858 0.17679
0.17681 1.48668847113647 0.972079331368518 3.02606374298487 0.0721164121584087 0.477972952259527 0.1768
0.17682 1.26574577866862 1.18576805791042 3.04711025603243 0.0654742451430084 0.468498767597951 0.17681
0.17683 1.44259081016498 1.36663199415858 2.91753978664026 0.0863169892450062 0.479328579052345 0.17682
0.17684 1.5041209655001 1.50720904376183 2.94287962547102 0.0839855840040044 0.469054034518423 0.17683
0.17685 1.50833755759737 1.61263912075457 2.92207866945138 0.0937088200200059 0.463028145395744 0.17684
0.17686 1.40634532112056 1.24434402045378 3.10907093739183 0.0665021709223029 0.489723108375874 0.17685
0.17687 1.30150290513177 1.07475585407447 2.76603645035346 0.0695822353965752 0.422531900161144 0.17686
0.17688 1.14573113973994 1.00072900410103 2.87982426166033 0.0570047616619862 0.425585421597208 0.17687
0.17689 1.17596309510361 0.954461995124448 2.92154712677056 0.0513208461196918 0.450470203996174 0.17688
0.1769 1.35161930846606 1.02511656592578 3.06046563968054 0.0719767137909595 0.475962337013035 0.17689
0.17691 1.62509363607781 1.22870041390859 3.02509307665541 0.0833206959200209 0.456257529183187 0.1769
0.17692 1.5196895126201 1.20049714681015 2.87260613696308 0.0750583601843478 0.462432421025321 0.17691
0.17693 1.17706585355957 1.06624784773926 2.83956179587696 0.0608494058194268 0.451949248508352 0.17692
0.17694 1.24512481002553 1.33498011781377 2.97928300806018 0.0795702474407155 0.465658026210338 0.17693
0.17695 1.48943004139905 1.21771408559001 2.99966058348812 0.0698534042582937 0.474060874736274 0.17694
0.17696 1.12125127191715 1.27128959096088 3.16151942407708 0.0628303872306897 0.48402340194559 0.17695
0.17697 1.18618655508306 1.55338676068836 2.96381674971716 0.0759577704342514 0.46178280009823 0.17696
0.17698 0.899271537491906 1.02542691684373 3.02581179139554 0.0437893632618826 0.496145484843984 0.17697
0.17699 1.40189372975569 1.09632526132109 3.10473885867761 0.0734322878192985 0.472122891746413 0.17698
0.177 1.50919720742888 1.16573020896307 2.9938162017884 0.0689214414493951 0.480859757910042 0.17699
0.17701 1.27704501578359 1.19447555314259 2.79407719226432 0.0763730621312777 0.433056518515366 0.177
0.17702 1.62420962907673 1.28983311261703 2.96338352412913 0.0817955702254034 0.461831660149614 0.17701
0.17703 1.52453326188697 1.38414824178127 2.84108636070045 0.0883061963019734 0.44407227736467 0.17702
0.17704 1.7488067040404 1.31961769047935 2.90942942080617 0.0932434126945364 0.474056289521089 0.17703
0.17705 1.76612091134502 1.70888609220189 2.86399604372165 0.0923033786175644 0.484225825099664 0.17704
0.17706 1.49104056474078 1.76154448827493 2.80862589643176 0.0848391126383625 0.457130842644465 0.17705
0.17707 1.4414008223189 1.33744667010173 2.86924626561828 0.0765971480440931 0.451000465523882 0.17706
0.17708 1.36455568092673 1.112646723354 3.01290427605287 0.0724546680628586 0.462020111389135 0.17707
0.17709 1.39885790960625 1.34624248808857 3.0387151627796 0.0745663759271413 0.472488079269851 0.17708
0.1771 1.79633812802638 1.33169207152822 3.16973234851274 0.088621841829314 0.518912350091016 0.17709
0.17711 1.81573069971308 1.369196400223 3.13526543644346 0.0929727356346579 0.51027412436298 0.1771
0.17712 1.40619725110389 1.31183294905438 3.1769906341404 0.0804257932144195 0.467561310384839 0.17711
0.17713 1.35539299580013 1.48307838420818 2.83534828798983 0.0720100521878091 0.466980503758488 0.17712
0.17714 1.19190400084035 1.6670564768336 2.93810082531897 0.0828194368528474 0.461222700890122 0.17713
0.17715 1.99908723949546 1.83927400714022 2.78317526634048 0.115433027696539 0.466886040609536 0.17714
0.17716 1.70548728434231 1.49645523529096 2.87580667095391 0.0859774218554822 0.453264564367479 0.17715
0.17717 1.58219621568918 1.34868581324176 2.82224958794406 0.0870963363586223 0.435206671885756 0.17716
0.17718 1.23837844680808 1.72594507910641 2.82882540871921 0.0887848778387082 0.452642702560219 0.17717
0.17719 1.30591821475681 1.80862714837923 3.07312527965684 0.0866670969623655 0.481177949789688 0.17718
0.1772 1.35559105141521 1.54566590674347 3.05440698973125 0.084950503994763 0.469906108786169 0.17719
0.17721 1.71485804902879 1.5136156966866 3.30585873110387 0.0897043505587369 0.519162499944896 0.1772
0.17722 1.64311903206747 1.41125257535768 3.32642809118667 0.0804866973816786 0.534472856572199 0.17721
0.17723 1.54562733219031 1.30872199141365 3.33928458798396 0.0823401389650739 0.526056428035898 0.17722
0.17724 1.41922003063282 1.39676620150286 3.36620087820274 0.0687676917322687 0.520205034397225 0.17723
0.17725 1.52750822334283 1.60511140369008 2.98614762357332 0.0864962475008069 0.474258317910998 0.17724
0.17726 1.51039608057235 1.41336699099507 2.85251957662015 0.086921538193933 0.436538192338987 0.17725
0.17727 1.6552923766988 1.63104395911457 2.7469830152173 0.0907545561345168 0.461336709646129 0.17726
0.17728 1.68476585497306 1.61907678233055 2.77758498991581 0.0944127457071942 0.434980719544157 0.17727
0.17729 1.45123648761714 1.51146800935935 2.8991808669894 0.0814937061812127 0.465225396778269 0.17728
0.1773 1.42914423975315 1.54964160508499 3.11377941401358 0.0872193846498528 0.484333684080116 0.17729
0.17731 1.63707024680489 1.64286248798415 2.96599029288678 0.0995084196566101 0.48781406546052 0.1773
0.17732 1.66855342875046 1.57708194868687 3.15415587319761 0.0854710023001858 0.490421718165938 0.17731
0.17733 1.57758578053473 1.52776834615937 2.97765665262798 0.0909447589669082 0.484033921690749 0.17732
0.17734 1.3045047396737 1.27306957492952 3.08468956525955 0.0790655436392949 0.500239927242403 0.17733
0.17735 1.14764385932114 1.356421972671 3.28210430631819 0.059043929931455 0.52345808642338 0.17734
0.17736 1.44001387564942 1.19183946996454 2.81623742059014 0.0739292798845658 0.437685958540264 0.17735
0.17737 1.3486517509252 1.32663625854385 2.89826504859049 0.0749288595685026 0.46930454772754 0.17736
0.17738 1.7335634843562 1.67291454126842 2.79295994810423 0.0903517931019866 0.445196642645019 0.17737
0.17739 1.50918945230561 1.68640682030428 2.83235039965375 0.0853763596651912 0.462271929592827 0.17738
0.1774 1.51543585376205 1.44615426128707 3.03410409541329 0.0817172113126216 0.468937989987143 0.17739
0.17741 1.23979033193022 1.39518126796979 3.01516622282442 0.0725229276249359 0.469755451307877 0.1774
0.17742 1.50641562404853 1.47493865351035 3.11269607313062 0.0849649794002487 0.490850225648429 0.17741
0.17743 1.66740700287772 1.45130729784404 3.16279326100539 0.0840347072449763 0.490962633098763 0.17742
0.17744 1.50729264153246 1.18428079870573 2.83919366192174 0.075114759314689 0.455219628952081 0.17743
0.17745 1.35635717859866 1.47355374656308 2.78736504237715 0.0826116925586342 0.435684015867854 0.17744
0.17746 1.39582187801943 1.24977550720399 2.77254124997127 0.0790550075489088 0.41229775387548 0.17745
0.17747 1.35494241352438 1.29009114450898 2.967834271725 0.0794836076550141 0.445345708825586 0.17746
0.17748 1.30906945393529 1.45743937651602 2.95035219247244 0.0806280601513146 0.498142121773188 0.17747
0.17749 1.24651673152588 1.12131557717595 3.12156151583466 0.069907158020942 0.452182530555837 0.17748
0.1775 1.59014655318273 1.26836265521017 2.91560674248837 0.082682394720896 0.462231385131949 0.17749
0.17751 1.58390131080634 1.40831861992017 3.06130454501642 0.0833215309673141 0.505010415152501 0.1775
0.17752 1.66751604844142 1.4982626528204 3.21173127405331 0.0929906897789787 0.483451874886861 0.17751
0.17753 1.28740432390292 1.19350410604133 3.13693047871862 0.0769712307836114 0.485777027757984 0.17752
0.17754 1.27018681340213 1.04897631210593 3.14453946819094 0.0688222124476248 0.483761256046889 0.17753
0.17755 1.10667742198596 0.826312598890495 3.01091991847755 0.0430774909707582 0.443775358801928 0.17754
0.17756 1.15223240078943 1.06259188485418 2.83558490057429 0.0582089996665637 0.442180443519536 0.17755
0.17757 1.41693511595899 1.40647135729754 2.93873734036496 0.0762941261917012 0.464928766892985 0.17756
0.17758 1.8521270468679 1.77556198321678 2.93837861099118 0.103112920877544 0.495066515119299 0.17757
0.17759 1.66716519804199 1.36100401150277 3.10083145593913 0.0842309916276843 0.48311477205302 0.17758
0.1776 1.23317967596384 1.2961888429409 2.90072640800849 0.0610233426374962 0.464692240294255 0.17759
0.17761 1.35250034802805 0.934198286268397 2.7190272241594 0.0626584709060044 0.422716033942474 0.1776
0.17762 1.21666561514191 1.05441935235533 2.93133347291044 0.0627029659641552 0.458993710258453 0.17761
0.17763 1.34866867860983 0.99829358956891 2.80697509262085 0.0654053118393967 0.426864811881844 0.17762
0.17764 1.48208296484519 0.998191734043139 2.83941678453946 0.0706209557441708 0.437466096703233 0.17763
0.17765 1.61620136141167 0.767649169259115 3.0286529202434 0.0590929036408571 0.480582710034312 0.17764
0.17766 1.25456504721331 1.06902510907706 2.90232325915354 0.0600964808454751 0.447979401784632 0.17765
0.17767 1.46586985402962 1.27223017815335 3.16324012563168 0.082737589592612 0.489844688007258 0.17766
0.17768 1.42828371822652 1.25906860164158 3.27093999768529 0.0726371185384157 0.499973496179111 0.17767
0.17769 1.14516564089593 1.30036231668183 2.97919037125438 0.0718786577993425 0.455614861028084 0.17768
0.1777 1.15043693737483 1.01636179474919 2.91170723173588 0.0576254178805998 0.442748667866014 0.17769
0.17771 1.25864444868936 1.17536681159143 2.96908372136304 0.0631650969942745 0.481250670213878 0.1777
0.17772 1.60074987246918 1.59502830822459 2.94438903275139 0.0887878944800956 0.492735515554601 0.17771
0.17773 1.50239814209888 1.64956017733828 3.12591789345139 0.0841810845751113 0.481435205963326 0.17772
0.17774 1.33336089423835 1.26079250479372 2.97343167107317 0.0798326173150885 0.433389079007468 0.17773
0.17775 0.975762473118294 1.24504882679582 3.02088383853789 0.0599444477437735 0.481370320904766 0.17774
0.17776 1.02887312573724 1.32719550350784 3.22086285253905 0.0690935789141714 0.465669376420356 0.17775
0.17777 1.42104726483044 1.40274205511524 2.89234446120598 0.0871156313420046 0.446600742537885 0.17776
0.17778 1.85448944980052 1.5438297053026 3.05905755859699 0.0968905452034746 0.493038604692762 0.17777
0.17779 1.41483154759173 1.46016824749188 3.03396362135596 0.0806024255370175 0.493811309159907 0.17778
0.1778 1.29470013916856 1.41296379699276 2.97392632754985 0.0783707436928858 0.468353417290159 0.17779
0.17781 1.19548635320181 1.16856217402553 2.95914715614186 0.0566142640202696 0.485707028454031 0.1778
0.17782 1.24443193928471 1.2884727222244 3.06093207712389 0.0779398140430385 0.470077929546419 0.17781
0.17783 1.49492320812896 1.75409403030634 2.98322327368521 0.102444185207067 0.472483177726134 0.17782
0.17784 1.51281531537285 1.78009570348521 3.01419122979487 0.0869839197088759 0.507886215898008 0.17783
0.17785 1.68501051821281 1.77522105863878 2.93966026086989 0.095858476036879 0.474973339875557 0.17784
0.17786 1.58644391800091 1.58260591958694 2.98250661453201 0.0946283652352061 0.477607509082352 0.17785
0.17787 1.71234198516069 1.54647534899535 3.19030451362129 0.0859892018357932 0.514825919642408 0.17786
0.17788 1.67816271291704 1.32622770086236 3.10915405393563 0.0858909684842553 0.485026193861544 0.17787
0.17789 1.33989045866261 1.55474172653141 3.12561335891631 0.0776062571707191 0.508400636353243 0.17788
0.1779 1.38379419467785 1.86472522044998 3.15267520904495 0.092096022050168 0.491674684977315 0.17789
0.17791 1.42818640902003 1.49737802214913 3.09006850814292 0.083117658959128 0.474457775419952 0.1779
0.17792 1.59327195068674 1.69762210771523 3.06794197188192 0.0935074674098664 0.493154665807595 0.17791
0.17793 1.5786679210791 1.32916592672636 3.02964687772185 0.0828489787280134 0.488453720007175 0.17792
0.17794 1.51113260484116 1.27437207615026 2.96558764484198 0.0741152306780504 0.455318839924484 0.17793
0.17795 1.41182223442752 1.30180146904364 3.04511383193523 0.0794537257655248 0.485098337590602 0.17794
0.17796 1.49483481190352 1.36640151572424 3.06770089845078 0.0832987643994062 0.457105526923148 0.17795
0.17797 1.79762497185636 1.99066942570395 3.25992394085835 0.108875993069655 0.525015677833222 0.17796
0.17798 1.65759749174911 1.81001906809862 3.39923562754843 0.106746472589257 0.517404755385143 0.17797
0.17799 1.378689147133 1.33275525122275 3.28099014190636 0.0673587671426675 0.511297725979432 0.17798
0.178 1.59638554850599 1.35279538274138 3.1459640051293 0.0839769020609254 0.521645190262156 0.17799
0.17801 1.5569270226891 1.74171400084029 2.99836896785701 0.0964659132455898 0.460486437606291 0.178
0.17802 1.796564772375 1.84358640579806 2.98852018349531 0.115544849742327 0.479256378535267 0.17801
0.17803 1.6056193876916 1.91856021800918 3.1913149116103 0.096897827479474 0.507329532246114 0.17802
0.17804 1.48649725938979 1.59001853641815 2.88782633608582 0.0840493902409266 0.46748060984836 0.17803
0.17805 1.58674801917085 1.6995693889567 2.95597518810446 0.102185595121332 0.449493288464258 0.17804
0.17806 1.44583666582779 1.94731230576155 2.90896548114845 0.100830449469137 0.473860026722125 0.17805
0.17807 1.59202689272831 1.40167099923683 3.14629544630335 0.0795276171620769 0.494005377063587 0.17806
0.17808 1.40647412047334 1.78232255113022 3.09902612835233 0.093236302635142 0.498211691054959 0.17807
0.17809 1.76952185841298 1.6875119024451 3.22403779644447 0.0929806391484513 0.5128868569442 0.17808
0.1781 1.74974406282197 1.45488749922975 3.21532934690559 0.0802305528597576 0.513046848160257 0.17809
0.17811 1.85156589183768 1.50249092325298 3.02913599454736 0.0926604585579211 0.478217693254422 0.1781
0.17812 1.49468198383233 1.18679596544606 3.03124903905072 0.072963045999493 0.463743837670341 0.17811
0.17813 1.70187559246621 1.60509475309943 3.02831934126727 0.0966598429796042 0.483283551773163 0.17812
0.17814 1.62112068629715 1.68566513226229 3.09554903244473 0.0905806583308646 0.497561125101886 0.17813
0.17815 1.52616723298584 1.19094270138562 3.29287607259356 0.0784978268585374 0.495953775873065 0.17814
0.17816 1.3808713215803 1.60427954393062 3.10612159790488 0.082583610324097 0.467390043184489 0.17815
0.17817 1.16074056819191 1.55234050693459 3.04776273495999 0.0725088659292823 0.510645680099948 0.17816
0.17818 1.61121808845759 1.89516764783755 2.99413148234964 0.102383971857092 0.487077719672751 0.17817
0.17819 1.61957459111164 1.45381402637799 3.04891904331144 0.0907225278186709 0.483732448462078 0.17818
0.1782 1.19724368267205 1.12645506287988 3.09156577354535 0.0675576025993993 0.466391929518914 0.17819
0.17821 1.48187336322245 1.27811251956862 2.93390374665793 0.0847452434697666 0.439077150612148 0.1782
0.17822 1.33584870251729 1.16195723139207 2.95643805860332 0.0749248569015551 0.468638869166003 0.17821
0.17823 1.59593668362914 1.31105115936517 3.05111617699673 0.0818563948117112 0.46623715726897 0.17822
0.17824 1.15109570237565 1.23500998168575 2.85172923019417 0.0704316139237883 0.430646824679557 0.17823
0.17825 1.13936180899818 1.26084262628716 2.95369995535574 0.075522561689027 0.455475637240029 0.17824
0.17826 1.30292250607453 1.31768282257418 3.07534128909416 0.0744382872427333 0.455524165766634 0.17825
0.17827 1.44335308760404 1.47535232771422 3.04094948952024 0.0832773378496392 0.462510493034076 0.17826
0.17828 1.44365493193747 1.38353436284729 3.12556674224847 0.0842860413982937 0.491195203859356 0.17827
0.17829 1.6346987911781 1.3030800025205 3.00871527923193 0.0856556026564466 0.478542205801447 0.17828
0.1783 1.49483779287385 1.16754096190955 2.72459760294534 0.0768491189765681 0.440785961088156 0.17829
0.17831 1.15373546271325 0.973017312252951 2.90265646834068 0.0612245535359584 0.410442442265601 0.1783
0.17832 1.45527812470983 1.14060918813934 2.97252198063632 0.0731028532546241 0.472800302542617 0.17831
0.17833 1.26406860481763 1.21370963374884 3.25008585655744 0.0734413423268587 0.47455724549213 0.17832
0.17834 1.61079790120113 1.35759520482721 3.2165209864622 0.0903318892675798 0.481202543201954 0.17833
0.17835 1.70926248641368 1.33410836087893 3.09817736223628 0.0920282635672004 0.487999753656053 0.17834
0.17836 1.39275161720413 0.995826768899017 2.90657185367729 0.0670838129981975 0.444191964569787 0.17835
0.17837 1.34472263707217 1.05789378194325 2.92792202331533 0.0701811220768448 0.45180649905111 0.17836
0.17838 1.51137929545575 1.17371368786687 3.04450845939486 0.0733140070534987 0.486279184640105 0.17837
0.17839 1.62275116666495 1.1284985817121 3.20206087273001 0.0771515543607969 0.48194611174336 0.17838
0.1784 1.31467637800727 0.97303747350184 2.95270310461972 0.0590702126638732 0.441954276263621 0.17839
0.17841 1.3549874269047 0.913180077688924 3.12813211772816 0.05622201647291 0.492098178203774 0.1784
0.17842 0.945921548212193 1.05800506226383 2.87351342980529 0.0517987884063007 0.453953856964535 0.17841
0.17843 1.61980761163727 0.972824049998964 2.98507636772439 0.0814525863498331 0.435576906952716 0.17842
0.17844 1.5530198375865 1.31656366334014 2.95211448058136 0.0796546673278555 0.482732045284554 0.17843
0.17845 1.55198464746273 1.24142925560596 3.00947306072224 0.0840281988519643 0.460560164316241 0.17844
0.17846 1.59684497416748 1.33419887047328 3.09045988592016 0.0732846399618734 0.481855671369124 0.17845
0.17847 1.43659906327106 1.26833729448788 2.98931428232159 0.0717581156832222 0.465009606410247 0.17846
0.17848 1.17102342872312 1.5891547527189 2.95563581562327 0.0820801676249004 0.466004152737144 0.17847
0.17849 1.37240761646119 1.14301037802133 2.84359216863165 0.0726500728619965 0.429545066091232 0.17848
0.1785 1.45448799529279 0.95797288582169 2.90748734504674 0.0601448270217492 0.45882380616046 0.17849
0.17851 1.55372328783774 0.847520814442891 3.05864338391397 0.0616505650455725 0.480124629986221 0.1785
0.17852 1.79793553779414 1.2666920168513 3.0691017501947 0.0908626718725443 0.496807834656113 0.17851
0.17853 1.76855916615178 1.60116819670329 3.1752710163694 0.0948823957112745 0.510535750681107 0.17852
0.17854 1.6196766983485 1.4270422929142 3.01210870678684 0.08579600378747 0.469266105879251 0.17853
0.17855 1.79430628949713 1.49060134051559 3.00924238617152 0.0875114758978717 0.48456559902156 0.17854
0.17856 1.32395656678584 1.07464427704401 2.93534631656812 0.0681613186517963 0.461573753205462 0.17855
0.17857 1.54253297519219 0.934695715504068 3.01596775588374 0.0647040439072252 0.455573783259874 0.17856
0.17858 1.22825903065122 1.16970178960864 3.00718082367094 0.0672411616714884 0.471549439766182 0.17857
0.17859 1.50718959928874 1.69251981246893 3.08428034060778 0.102328318613015 0.48299994220215 0.17858
0.1786 1.96588541434545 1.72785484183646 3.03370778709491 0.101300403216071 0.511702692772931 0.17859
0.17861 1.61743252095819 1.61786298418066 2.97553720793783 0.0937884203297367 0.492266981600893 0.1786
0.17862 1.65406093694336 1.57797801233649 2.96799737668649 0.0932121009227156 0.463230766648702 0.17861
0.17863 1.12659113661509 1.33732082225183 3.12937062908663 0.0676749875642502 0.486366055131185 0.17862
0.17864 1.59897433010847 1.34314131809335 3.38078391429849 0.0777428039828307 0.53257524853197 0.17863
0.17865 1.57433562165086 1.79110808437383 3.28720053563779 0.0919579100576278 0.530955324858276 0.17864
0.17866 1.57078675450894 1.87255058671269 3.19367565265242 0.0985769041817551 0.518623797792282 0.17865
0.17867 1.20739650773099 1.58135158754235 3.15896616362147 0.0718709430927536 0.47667254904755 0.17866
0.17868 1.41057878801623 1.61222822701538 3.01736320691358 0.0947849425144731 0.44988398177422 0.17867
0.17869 1.5004863429627 1.54146665744728 3.02295814258852 0.0849936041009998 0.469553223619491 0.17868
0.1787 1.53925069443391 1.71746461535295 3.13944463899319 0.085651604834818 0.485483936399194 0.17869
0.17871 1.65940607333211 1.79727080285799 2.91691819446474 0.0980614000126948 0.463210814466168 0.1787
0.17872 1.42193116837216 1.49940801094832 3.02961556094315 0.0832657831746355 0.461126284505766 0.17871
0.17873 1.54355431300986 1.5540345092919 2.82566157313198 0.0885500078983673 0.465373401469658 0.17872
0.17874 1.79358911969353 1.65533103648808 3.07731320688299 0.0980881381539126 0.482599712680762 0.17873
0.17875 2.1314801363379 1.43041312823451 3.03701060362083 0.102528336850884 0.487872152489659 0.17874
0.17876 1.6033338470105 1.1376350917875 2.97150024441159 0.0802876656704273 0.476245021137278 0.17875
0.17877 1.85716569465964 1.3847435053483 2.9887852684145 0.0915066215763871 0.457750017757602 0.17876
0.17878 1.55808684660567 1.58480793253235 3.02291190257376 0.0850340218208561 0.483750228042501 0.17877
0.17879 1.54759157998799 1.36015144637978 3.09141620507266 0.0767223341091792 0.486554679135821 0.17878
0.1788 1.95145942598871 1.55724770436922 3.30076873438381 0.0981522856041804 0.522013490849861 0.17879
0.17881 1.67507807744389 1.61295490236493 3.22022442209233 0.0908842695993404 0.490328890514962 0.1788
0.17882 1.51898218145053 1.62269707430621 3.15438509857696 0.0935548505587414 0.489069574708786 0.17881
0.17883 1.78340522260813 1.69055377819084 3.03530484667725 0.0959748730490189 0.48881236843823 0.17882
0.17884 1.55390532021971 1.42071919013187 3.05957735637912 0.0789066503013316 0.501809692927886 0.17883
0.17885 1.86302721394069 1.69110716304471 3.22718680702703 0.100444945920495 0.498384856707176 0.17884
0.17886 1.48123398850836 1.50078238462825 2.8766220226459 0.080193141252701 0.446156199798892 0.17885
0.17887 1.64972713496009 1.68839385050447 2.93417830184825 0.0935390400847961 0.487090879306682 0.17886
0.17888 1.75075867749366 1.98921643896813 3.30781744598258 0.104982815829923 0.500059878502207 0.17887
0.17889 1.77628823480686 1.76120047591298 3.01733154361516 0.0904054384132922 0.495444620836155 0.17888
0.1789 1.37015893777442 1.77730202758602 2.98902543460687 0.0887774819435059 0.48465715542649 0.17889
0.17891 1.5175484308613 1.59853364141699 3.27302973509665 0.091539995736789 0.502275587541131 0.1789
0.17892 1.28000086572167 1.1821065287516 3.0740873198496 0.0639767325914655 0.470616124143596 0.17891
0.17893 1.44934089468352 1.04245459916279 3.18062170333573 0.068491538308643 0.469480931946714 0.17892
0.17894 1.56689806963644 1.29308705870878 3.16826988669208 0.0814485611451275 0.492416486174134 0.17893
0.17895 1.33598561769699 1.28799819525395 2.82327432654119 0.0804305296717951 0.448744350766892 0.17894
0.17896 1.20640300987294 1.62793446305927 2.87660784064143 0.0713382467555812 0.46808510819866 0.17895
0.17897 1.35543478177924 1.42817981242365 2.93411358797415 0.0855125942805176 0.452285465973015 0.17896
0.17898 1.29681850426925 1.50361436336465 3.09066562350614 0.0895165083716658 0.463034399806721 0.17897
0.17899 1.40491986757469 1.7600865511106 3.12721878155947 0.0817239642534587 0.52371792241141 0.17898
0.179 1.49327320550579 1.66497252327142 3.08638112402343 0.0900146024093838 0.488137737073124 0.17899
0.17901 1.58580699258658 1.4222479897733 2.97708048995038 0.0851955129876038 0.480213114598233 0.179
0.17902 1.41858277625732 1.13656216300341 2.94137435267523 0.0669018309067089 0.460723552221468 0.17901
0.17903 1.25389844154058 1.32110218102155 2.97000571744497 0.0680788460526362 0.460369884241011 0.17902
0.17904 1.30397654612719 1.31788607281092 2.98247432797983 0.0691640316796185 0.485047465157025 0.17903
0.17905 1.54524930807687 1.22904848127549 2.9329408991465 0.0783707387287706 0.466684158914258 0.17904
0.17906 1.56585076504113 1.29575359187355 3.23426063456125 0.0777786675999781 0.513230719220715 0.17905
0.17907 1.73693918092421 1.40850735646245 3.17856617502906 0.101760073967381 0.479853518518024 0.17906
0.17908 1.382923491617 1.37988811698229 3.14765861575988 0.0659671752820695 0.478863009547892 0.17907
0.17909 1.61439949563397 1.34931150797524 3.22173167121691 0.0835816336652907 0.47973420495126 0.17908
0.1791 1.37584991963014 1.37740468305787 3.10588770174051 0.0685674748718463 0.499312721376104 0.17909
0.17911 1.38424019399263 1.14064965724885 3.33921720922326 0.0756682256038496 0.496252089911245 0.1791
0.17912 1.53050322553682 1.09791661380439 2.87277178926256 0.0732962720648819 0.46102391595738 0.17911
0.17913 1.5979635874652 1.45791282267238 2.90564800822942 0.0878452293661681 0.47648535500436 0.17912
0.17914 1.54097663638045 1.36489741550135 2.8774803586951 0.0795455557754161 0.448406507609473 0.17913
0.17915 1.65830490725196 1.49122056761789 2.97560568441174 0.0844386618360889 0.466071593143175 0.17914
0.17916 1.29925614360709 1.40454425214438 2.91471580772069 0.0688050890808036 0.476694590270799 0.17915
0.17917 1.18953637273692 1.44686269867828 2.87085858947162 0.080085333554206 0.443294907629193 0.17916
0.17918 1.39552030198169 1.45868635820608 3.03548925051043 0.0833725301255675 0.482909992433533 0.17917
0.17919 1.50213762569591 1.30398899255867 2.95426149866168 0.0790115528254634 0.45402241850486 0.17918
0.1792 1.5454605041142 1.14165181326611 3.27533425189576 0.071030960100593 0.513346290871931 0.17919
0.17921 1.37984602195117 1.33056720772687 3.22259652615106 0.0739471768477027 0.502738018921868 0.1792
0.17922 1.06560678257296 1.17840852074563 3.33128256835975 0.0586354423777352 0.502062750315405 0.17921
0.17923 1.04025228560173 1.17950569970727 3.48128753020803 0.0617286503246938 0.523027088858464 0.17922
0.17924 1.54010103929726 0.958334413222792 3.31023954980017 0.0653573657066201 0.493905437615364 0.17923
0.17925 1.64232955253918 1.43226038157438 3.11429331359735 0.0874837411220825 0.499035937059826 0.17924
0.17926 1.61475834693662 1.63028168936725 2.91290696407438 0.0952971631797254 0.440596999639113 0.17925
0.17927 1.407696484498 1.10952825532531 2.88278865037853 0.0691864358681207 0.459395342808756 0.17926
0.17928 1.39476796455769 0.920561971220611 2.8768959963844 0.0580086600006842 0.445310182445655 0.17927
0.17929 1.77689351081335 1.57002126387256 2.96849526998012 0.106152511149296 0.473594339932985 0.17928
0.1793 1.81921430335179 1.3416958975656 3.08242641530767 0.0894861020749348 0.476375816873249 0.17929
0.17931 1.61320104266185 1.05394453236168 2.89040800409521 0.0649680049595436 0.475530421833267 0.1793
0.17932 1.29183388898363 1.13325268307349 2.94033806878599 0.0695600363414996 0.445035567551038 0.17931
0.17933 1.51864548702443 1.38342532698431 2.98145281904121 0.0869341808300214 0.486645727765994 0.17932
0.17934 1.52623376289228 1.35695385568747 3.16359796077124 0.0771141557339548 0.478129703037078 0.17933
0.17935 1.26911856556529 1.59622469539694 3.01440321649806 0.0841904943268593 0.478576262365697 0.17934
0.17936 1.40517733009888 1.38653860732401 2.97098344077089 0.0866145750320736 0.456570817903439 0.17935
0.17937 1.2667803567954 1.01469406255071 2.96241025108647 0.0577872770968798 0.474568580097248 0.17936
0.17938 1.65286240782744 1.18812558918959 3.03205424158257 0.0769280225830046 0.483856439105226 0.17937
0.17939 1.66886042169844 1.45802944221398 3.05548905865365 0.0785337390257848 0.486987457656211 0.17938
0.1794 1.55763704055998 1.29908258208503 3.1919956142925 0.0798434200599445 0.478114602401429 0.17939
0.17941 1.38315150172972 1.6966434906773 3.10703128536537 0.0848029813985865 0.475739509348728 0.1794
0.17942 1.34776385137262 1.45697416459941 3.05108193188061 0.0799233392106695 0.499135786035936 0.17941
0.17943 1.54200659960868 1.74447356881795 3.12984318901576 0.0939986163829734 0.502064939195718 0.17942
0.17944 1.32587810384113 1.5519025551427 3.13863040843076 0.0805873910648892 0.488556084414147 0.17943
0.17945 1.69800527691389 1.45600438974328 3.11628288020219 0.090706277060696 0.479410069395818 0.17944
0.17946 1.57639931402334 1.64709650974489 3.01827191324555 0.0994382283223509 0.462582904532545 0.17945
0.17947 1.67504235290408 1.40058926106756 3.14912931333552 0.0851742074749681 0.498194347134563 0.17946
0.17948 1.79259301714028 1.29327243663252 3.15391980539267 0.0890368864349209 0.494472842395915 0.17947
0.17949 1.46222132695307 1.3105611581495 3.15045932701618 0.071592818229861 0.463841580515351 0.17948
0.1795 1.1438153264187 1.21186209190861 3.13281233292791 0.0689551157275685 0.467336917852001 0.17949
0.17951 1.53995839198643 1.48952012463194 2.95758416485697 0.0873913363247319 0.469536706883363 0.1795
0.17952 1.58699220732109 1.82372292221066 3.03472247850677 0.090797732258704 0.509128363468413 0.17951
0.17953 1.73182743355249 1.83012378692607 3.24171050777523 0.101445016398002 0.520000410216976 0.17952
0.17954 1.78880927450571 1.7742060705275 3.23348772124337 0.102847349536046 0.516482342119775 0.17953
0.17955 2.1385130509017 1.78488018180034 3.15501562213352 0.104236013178707 0.520779173388104 0.17954
0.17956 1.70029246681789 1.38913811866212 3.07844312530235 0.0852275196991887 0.484998442323578 0.17955
0.17957 1.43199633794415 1.13677745738422 2.96548288660797 0.0765900263039592 0.455918297484159 0.17956
0.17958 1.46079555912036 1.56718321787014 2.88305954591544 0.0848061299694151 0.444105899459256 0.17957
0.17959 1.39897527936041 1.79089437981619 2.78710685406077 0.0837576000919393 0.462868889476183 0.17958
0.1796 1.43866445866389 1.46132299903021 3.25345677022057 0.0799692024240342 0.529965344499749 0.17959
0.17961 1.66947995526247 1.6483930186389 3.2129277614877 0.0925887846018693 0.489445834121979 0.1796
0.17962 1.68068820101184 1.18126395468035 3.29104783006765 0.0818355967113343 0.51866642057442 0.17961
0.17963 1.70871059033472 1.50065315471062 3.25949879868294 0.0874225585188439 0.515319857911784 0.17962
0.17964 1.34378229411468 1.42205259640205 3.25007315845345 0.0813770285910508 0.492832516990731 0.17963
0.17965 1.48584772402167 1.45838811422141 3.1696449891741 0.0830263581047663 0.512872247259819 0.17964
0.17966 1.66967442272102 1.66899544745916 3.29520757457948 0.0907159766521074 0.536016651180247 0.17965
0.17967 1.78253269512875 1.45002604485877 3.09462851913158 0.0903582035278881 0.487118490609627 0.17966
0.17968 1.40849387814301 1.55342112823613 3.21065338395089 0.0789682725017243 0.510554800203346 0.17967
0.17969 1.36718791499176 1.40502391749354 2.95000374419018 0.0789660599812735 0.453341775563509 0.17968
0.1797 1.23758336734015 1.53299156784241 2.78043306738021 0.0764595652427299 0.456052537752105 0.17969
0.17971 1.54272403518401 1.72196154008363 2.95851729229917 0.0960278673248957 0.492517358660358 0.1797
0.17972 1.69667434714733 1.62415246172569 3.08484799489258 0.101069133328137 0.48719208639895 0.17971
0.17973 1.76075940794654 1.27349945096602 3.18031689658391 0.0865340652658779 0.513140367366455 0.17972
0.17974 1.72289189259801 1.10036335737102 3.32201548330653 0.0777002070426937 0.529123065763628 0.17973
0.17975 1.43982463983898 1.40274965913039 3.12309964974067 0.0780125792742745 0.498857101944924 0.17974
0.17976 1.69362399240354 1.59511883091925 2.98204597269803 0.0929800930284308 0.486917042921894 0.17975
0.17977 1.42020262839207 1.60785697481196 2.94004367580796 0.0886629642984831 0.450444711332464 0.17976
0.17978 1.22474255595994 1.51065694540919 2.73006802029511 0.0726117563127092 0.448161795827853 0.17977
0.17979 1.8667471424897 1.72331841401951 3.17944618592098 0.101255799783239 0.500194449860137 0.17978
0.1798 1.58408738805361 1.72113563443329 3.15827991654004 0.0919720374989721 0.505916414085415 0.17979
0.17981 1.85255452959884 1.57968151195767 3.03303852503475 0.0953552748644999 0.481159276513979 0.1798
0.17982 1.56904329841304 1.41195835360859 3.11595386999745 0.0781515277988043 0.507011779443562 0.17981
0.17983 1.31133693081456 1.4260754635448 3.20521830530608 0.0769190313600221 0.481554934910657 0.17982
0.17984 1.34036446629017 1.12681498495545 3.12415822239372 0.0698391521651504 0.479869247349694 0.17983
0.17985 1.45873526726539 1.19485620642195 3.33976014647627 0.0747346314278893 0.495299915850753 0.17984
0.17986 1.43517085618384 1.4714297241493 3.17078063637079 0.0783677104915983 0.492056553031687 0.17985
0.17987 1.79815617637553 1.39466895571517 3.20086396854646 0.0901378609463137 0.50267463473742 0.17986
0.17988 1.67686489826928 1.50912422259047 3.06626752521745 0.0824692811504537 0.513152086501048 0.17987
0.17989 1.49947190139361 1.58683991195569 2.97909006487358 0.0910228086270632 0.459558130558165 0.17988
0.1799 1.70005674829405 1.2727288570589 2.96011658309334 0.0925383296917853 0.450512240036569 0.17989
0.17991 1.29988320258771 1.21339923302043 2.93547222337541 0.0665825444709706 0.485621622932475 0.1799
0.17992 1.20482120690029 1.2915086904447 3.02202587491037 0.0716657903861286 0.461853860507053 0.17991
0.17993 1.23259604974533 1.21249571787114 3.17918933653695 0.0673567004773723 0.481827408733417 0.17992
0.17994 1.37708088748507 1.0936504514071 2.95397765116063 0.0731767483702876 0.459228332658529 0.17993
0.17995 1.52781316691407 1.45204426068817 2.92860497656447 0.0769019520061398 0.457891989951131 0.17994
0.17996 1.60521789561798 1.36330502886123 3.02632688864453 0.0838032319304082 0.488510571066237 0.17995
0.17997 1.58909039672811 1.42231701976837 2.87242278396836 0.0824933799274352 0.462343901600871 0.17996
0.17998 1.42664039121727 1.39438457484895 3.02297874469776 0.0753673559353548 0.469924535950409 0.17997
0.17999 1.32745837486851 1.35440750191649 3.24143060491232 0.082825584179226 0.492288532719309 0.17998
0.18 1.47856413351237 1.71092615010793 3.40984963440362 0.0876496414360243 0.555641038679716 0.17999
0.18001 1.59543649031059 1.27064932757504 3.27432641293441 0.0784813777791432 0.516086881340205 0.18
0.18002 1.40689628734205 1.03241320979749 3.16211001548604 0.0700297233075463 0.485821588738676 0.18001
0.18003 1.37655146404462 1.06193674212098 3.15452364003767 0.0677018917296082 0.487370048770971 0.18002
0.18004 1.33364912717366 1.27014742779186 3.16393097643729 0.075578158071043 0.467834628002998 0.18003
0.18005 1.7805380666326 1.37153711958815 3.37564734090143 0.0912346004746757 0.522053176757275 0.18004
0.18006 1.60828494463652 1.4215333773269 3.09707576908367 0.0823769092934874 0.501096301240187 0.18005
0.18007 1.5084362177104 1.41482753485969 3.21914587384749 0.0700383397530569 0.514068888944789 0.18006
0.18008 1.52104125614389 1.35511007255076 3.32357676433846 0.0829109643399697 0.481161250812609 0.18007
0.18009 1.40890425857036 1.30764413250654 2.71604039517604 0.0772164991580995 0.458152486906539 0.18008
0.1801 1.57855223783137 1.66124011183197 3.06052993702849 0.0858107966736329 0.47440765977533 0.18009
0.18011 1.62809183375323 1.48794077374912 2.96840379102868 0.0862760780297165 0.485037925795011 0.1801
0.18012 1.46034594469092 1.38105271813972 3.07055273328586 0.0805160581623081 0.472490192358992 0.18011
0.18013 1.69128962190214 1.46755510812808 2.8748155760724 0.0939482330549105 0.470076749529008 0.18012
0.18014 1.35296833438924 1.26202210461085 2.9169127837574 0.0718619639065427 0.447567543921544 0.18013
0.18015 1.31049099858878 1.49934394979202 2.94818544816445 0.0714430632636291 0.495818771390455 0.18014
0.18016 1.26004049554713 1.81624987844726 3.10123972398642 0.0985878628831831 0.458166724554595 0.18015
0.18017 1.66921065309254 1.89573197858296 3.09542986868769 0.106974807331296 0.49746220993787 0.18016
0.18018 1.56525844180879 1.65217176681856 3.43265818771814 0.0911462514594108 0.510502919406691 0.18017
0.18019 1.54629636365974 1.42201308541077 3.5391084132686 0.0812380197679891 0.560248053267051 0.18018
0.1802 1.35049958464328 1.40221201306296 3.50942212889253 0.0674921873766416 0.533563182691432 0.18019
0.18021 1.50211971374673 1.54248686701866 3.22994999085191 0.0869073458138142 0.495942006760765 0.1802
0.18022 1.29090021543672 1.08989742073105 2.90073989664686 0.058308554631607 0.451981371886268 0.18021
0.18023 1.48694959892483 1.43565354206121 2.86686689019669 0.0847212367307298 0.447177813820122 0.18022
0.18024 1.65198592092878 1.58833957315033 2.97737474061788 0.0888455869815846 0.465973391323917 0.18023
0.18025 1.66174096669306 1.52121977665342 2.93981060178729 0.0922971528302764 0.477051297501166 0.18024
0.18026 1.99104298594375 1.6480641079079 3.07489605987317 0.0993266455561371 0.495502656389048 0.18025
0.18027 1.53809924307915 1.56131666913236 3.00249772140476 0.0854386481608006 0.475238040466283 0.18026
0.18028 1.47215188685661 1.57622070957602 2.91487161795443 0.090897467612995 0.457794036188809 0.18027
0.18029 1.49564104469695 1.25983534934529 3.19833589751065 0.0784029859721496 0.475155860828139 0.18028
0.1803 1.53379694201054 1.4134294143443 3.13831115270313 0.086748137477605 0.506793436749626 0.18029
0.18031 1.59395546444191 1.25942232530765 3.32360089704463 0.076915510813135 0.510001013024527 0.1803
0.18032 1.75615763996557 1.57460254106039 3.21090275873992 0.0829836282004379 0.532222889196087 0.18031
0.18033 1.68316592835006 1.38112041878244 3.09462887846698 0.0843628392628806 0.484593823124604 0.18032
0.18034 1.74580294096261 1.64377393254406 2.98587769517584 0.090120122226483 0.476443823238163 0.18033
0.18035 1.58227444485464 1.58414681470854 3.07943933106478 0.0874033456376722 0.489614339601763 0.18034
0.18036 1.73377870228982 1.87380404663035 3.22741532726103 0.104406399924517 0.490700647491534 0.18035
0.18037 1.69998532305516 1.86952526083992 3.13504859591824 0.0998583242477045 0.509909388036682 0.18036
0.18038 1.41278070073134 1.59547934345792 3.21143203773746 0.084704322180368 0.504574308449993 0.18037
0.18039 1.25408374684319 1.58420006953566 3.23157995956356 0.0844352103336399 0.489225689545476 0.18038
0.1804 1.70195262594077 1.56407393159116 3.21782224013255 0.0875424459888217 0.505351889566069 0.18039
0.18041 1.69128705205798 1.62011153539203 3.08016364751639 0.0989854900841006 0.488951604649288 0.1804
0.18042 1.63606570898351 1.39471439752028 3.15964128867877 0.0788022419419333 0.505823218397671 0.18041
0.18043 1.73400855055202 1.48458396466356 2.97412486656357 0.0957302809385634 0.455429616280355 0.18042
0.18044 1.55373166622023 1.23202562540499 3.01148254083915 0.0753140744135364 0.459136802157606 0.18043
0.18045 1.79664574816868 1.50415044215767 3.11198123235218 0.0939902347747223 0.508429414244734 0.18044
0.18046 1.83129848481966 1.55308899268766 3.18523724011628 0.0875254352564982 0.514956993834738 0.18045
0.18047 1.79462131043322 1.66771146828954 3.27239034073889 0.10247601626381 0.526892148474066 0.18046
0.18048 1.48677881259535 1.70013904160668 3.37785239841486 0.0937865359026517 0.513387152729702 0.18047
0.18049 1.61939505362579 1.7040979203479 3.09127592888081 0.0870812991453668 0.500761410051611 0.18048
0.1805 1.34135956230037 1.30210682447644 3.06925688910063 0.0791739653549814 0.475974328515796 0.18049
0.18051 1.68494237479301 1.47710637480915 3.30665957917146 0.088674141957445 0.50630924944841 0.1805
0.18052 1.61625798335017 1.69703627980238 3.0643057577801 0.0920123319441034 0.486465552321523 0.18051
0.18053 1.65152557871451 1.76129738967063 3.03051964326638 0.0949813402256541 0.469749247996258 0.18052
0.18054 1.75781016427365 1.41332948648368 2.96589163698839 0.0983305705430487 0.457682151234756 0.18053
0.18055 1.71924679870379 1.49904205604467 3.02780742221811 0.0952401888889014 0.475844079210482 0.18054
0.18056 1.52157953070381 1.45765561858865 2.87072106006727 0.0823825324250835 0.471535963820241 0.18055
0.18057 1.51350757181881 1.62962444738224 2.85377212240421 0.101032726309247 0.464356017423568 0.18056
0.18058 1.80566684705856 1.52521204220718 2.93808615879846 0.0921119647090469 0.490291522993593 0.18057
0.18059 1.86681364679024 1.34090407455593 3.10714948480547 0.0874718384711094 0.497838163432634 0.18058
0.1806 1.82312049667992 1.18497904590036 3.22232488883548 0.0863975439326676 0.513326450287047 0.18059
0.18061 1.29489465209774 1.39743547471917 3.12808794459171 0.0744092781156573 0.480272280139611 0.1806
0.18062 1.73262435358371 1.73621221309476 3.404543917969 0.0965962284464947 0.554447920060366 0.18061
0.18063 1.91162979766277 1.46460603716962 3.11690357628702 0.102717484545918 0.482296305264563 0.18062
0.18064 1.60689176060842 1.71279350607869 3.1550959232362 0.0923503954815338 0.524010319054538 0.18063
0.18065 1.40405483537594 1.63890882972625 3.20023552421586 0.0820659831502041 0.499792564670854 0.18064
0.18066 1.30911878447693 1.45330448010578 3.02178590430241 0.0844699229686487 0.47579865364365 0.18065
0.18067 1.53524252660185 1.681169904669 3.11312459065191 0.0918482095708295 0.483749999707986 0.18066
0.18068 1.36421178743358 1.12724314314622 3.03184766653147 0.0638240956313048 0.47633690699143 0.18067
0.18069 1.43027546486438 1.24628989334598 3.03841586038815 0.0811955262571735 0.462056912087249 0.18068
0.1807 1.63735990934563 1.25632009229353 2.95152994290336 0.0763534619327914 0.477134523196377 0.18069
0.18071 1.55821298883753 1.19961519546227 3.22496739100289 0.0783686035329579 0.480763665299248 0.1807
0.18072 1.65430601851807 1.63372411083004 3.13303692722891 0.0959237325790708 0.503764572525717 0.18071
0.18073 1.44846901097098 1.60262267579984 3.32412826024125 0.0837160432145448 0.560895523197283 0.18072
0.18074 1.34880490455297 1.55346827580556 3.49878154262355 0.0854662496894332 0.504004053589279 0.18073
0.18075 1.63576018382035 1.54420592776492 3.0673320578783 0.0922300052337523 0.485535995572951 0.18074
0.18076 1.384399035626 1.25606306092345 3.30593113151065 0.0728248259983363 0.484227507816604 0.18075
0.18077 1.7735804378641 1.3446931747007 2.97554752634699 0.0813695200386522 0.468660713197801 0.18076
0.18078 1.46965355573476 0.733275492167972 3.01478730265865 0.0600929890470481 0.447927963438656 0.18077
0.18079 1.33187766575468 1.08911402909867 2.91468065428745 0.0643587777248021 0.451523908700454 0.18078
0.1808 1.86876519875745 1.32467540222717 2.98483547423148 0.0920056979745257 0.467216948384288 0.18079
0.18081 1.74055800001063 1.48525769091365 3.1171547435882 0.0877027101580763 0.496667882235129 0.1808
0.18082 1.90569870338596 1.72242571138306 3.37155707219593 0.106809914392769 0.526299031025546 0.18081
0.18083 1.52203061467297 1.62276604973959 3.09938418475506 0.0881249475147175 0.480875473072561 0.18082
0.18084 1.17890989116034 1.37976311833395 3.20945476700562 0.068775629928781 0.505091477511185 0.18083
0.18085 1.52476195835169 1.14133615470455 3.12539248896409 0.0767659441452489 0.452555540918074 0.18084
0.18086 1.53133984000527 1.2871831800186 2.87423136039637 0.0811483505517918 0.486658221421108 0.18085
0.18087 1.71476184037752 1.14243437673828 2.95709916232711 0.0804968178312033 0.454587143268255 0.18086
0.18088 1.70385843683139 1.37128188646512 3.00547827070349 0.0937515745902382 0.457637074787589 0.18087
0.18089 1.32821996179007 1.33787571081617 3.13476840676882 0.0755365176922228 0.500419997805811 0.18088
0.1809 1.54257937652311 1.49637426235894 3.06434436365515 0.0852843198137314 0.476335894655757 0.18089
0.18091 1.60181624259967 1.28314059066958 3.05650804610456 0.0853441156511902 0.460514088228893 0.1809
0.18092 1.63323203269881 1.37425565900471 3.04901613373562 0.0847902217711866 0.500276935848047 0.18091
0.18093 1.51020788838612 1.62429632769694 3.29279749772523 0.0853218290007996 0.501954601541472 0.18092
0.18094 1.06807450695741 1.22184682763896 3.07401430374733 0.0661322796057027 0.460880327792475 0.18093
0.18095 1.17666865718295 1.22672150083297 3.07257919270318 0.0706009698844952 0.473888820479863 0.18094
0.18096 1.51550277465921 1.89759658120079 2.9012081528465 0.0916479391058867 0.482227793294774 0.18095
0.18097 1.60262630537561 1.71179425322455 3.17673248739535 0.0973417176959727 0.492344294498743 0.18096
0.18098 1.73645366113778 1.46667523363784 3.33240865529194 0.0935817157318397 0.535211203445082 0.18097
0.18099 1.66929694603026 1.3251576430489 3.16831241645696 0.0910749824113368 0.496312199347669 0.18098
0.181 1.53572234135421 1.44124032374608 3.20554942959711 0.0768541671367409 0.50126231311234 0.18099
0.18101 1.61811979151474 1.41585670164362 3.09864609623916 0.0840257418959328 0.4885681393316 0.181
0.18102 1.33011971849594 1.23729725037634 3.25805406568275 0.0727369888510216 0.508188051004561 0.18101
0.18103 1.23407510116902 1.56700309885159 3.32686751625021 0.0776900173208164 0.507743248283 0.18102
0.18104 1.4712750900547 1.71319841017256 3.06905764500979 0.0958157491956112 0.460920516926791 0.18103
0.18105 1.58365235943656 1.54374336825707 2.87971347066579 0.087916037946928 0.482506444467133 0.18104
0.18106 1.82461987432356 1.67541311422789 2.83442337955211 0.0935501412520649 0.475394412249745 0.18105
0.18107 1.80482936149578 1.6282588699665 2.85045904435059 0.101810212284044 0.451780582200087 0.18106
0.18108 1.747739230952 1.37353423072785 2.95323470650933 0.08254734670635 0.479042033679747 0.18107
0.18109 1.56086206135942 1.09769895676957 3.20279503298446 0.0747875435959888 0.50430314341637 0.18108
0.1811 1.44624759623046 1.27659527451691 3.17842774827868 0.0800791542232225 0.472809693437353 0.18109
0.18111 1.80031056136435 1.71336552485474 3.17609745762908 0.0899937272644694 0.523473751000803 0.1811
0.18112 2.02350503880597 1.72974120971359 3.18227121754349 0.113784689784607 0.510031278903919 0.18111
0.18113 1.71720091598216 1.95097612218643 3.23022918102066 0.105480180009385 0.51712306048985 0.18112
0.18114 1.88353054677138 1.70274488745759 3.19694209057086 0.106734925588731 0.494594805722682 0.18113
0.18115 1.51917431691911 1.37090468689129 3.3929812699806 0.0800715869082872 0.540688670277708 0.18114
0.18116 1.61085499601268 1.45256972629016 3.52777941081277 0.0804675853645639 0.527968091159442 0.18115
0.18117 1.71202850656382 1.61902285359882 3.30343455237217 0.101654216121495 0.509484095608054 0.18116
0.18118 1.62658966300521 1.77051239365059 3.05987173017715 0.0998282542105376 0.482639369654359 0.18117
0.18119 1.72976969077337 1.89401801371654 3.00012209541335 0.100774119576162 0.470325377867006 0.18118
0.1812 1.66763416631326 2.10605533447389 3.2058650153276 0.107666543106228 0.498150780010257 0.18119
0.18121 1.53676697677569 1.76656397190646 3.15413215296133 0.0964457446492815 0.525760482779962 0.1812
0.18122 1.56551386377034 1.66458216774115 3.27430349443654 0.0899739458314427 0.519492310904412 0.18121
0.18123 1.35144173098594 1.80950701915147 3.09592614869925 0.0924385984574213 0.480842775944719 0.18122
0.18124 1.34593093764947 1.70682402771828 3.10725252746722 0.0858921689640499 0.515926608663562 0.18123
0.18125 1.78938586312669 1.7111421029426 3.12224871684898 0.105491879562814 0.498276701566078 0.18124
0.18126 1.55988724695669 1.44487575203195 3.26927493296239 0.0813587710852286 0.512148187730967 0.18125
0.18127 1.38902773901573 1.4701181523154 3.52182310128268 0.075054942267206 0.530371380701103 0.18126
0.18128 1.37345329584552 1.35788487928906 3.16296931602944 0.0777768461035476 0.496156081437291 0.18127
0.18129 1.5578008050124 1.369334283743 3.12124861386699 0.0796525097170142 0.487890148007114 0.18128
0.1813 1.93252739283231 1.50599326722223 2.98295686726074 0.102604303058443 0.506099925986067 0.18129
0.18131 1.78834218270461 1.83994548643063 3.0639672797478 0.101976819014926 0.49312756881756 0.1813
0.18132 1.7875863015909 1.67804782829946 2.96840295200177 0.095934676547499 0.480390899083379 0.18131
0.18133 1.55768898024933 1.76947746517091 3.21770927910805 0.0975928508680989 0.510453903067268 0.18132
0.18134 1.7686500021854 1.85704681982747 3.04392786877746 0.102675083636412 0.486506738278239 0.18133
0.18135 2.03249149421965 1.43737187428171 3.05385052139723 0.0955711440259495 0.490127413334294 0.18134
0.18136 1.55923326502736 1.31672965497853 3.1168374001814 0.081162654570773 0.479926992824069 0.18135
0.18137 1.60617314129905 1.63942916944573 3.22853978139733 0.0902679869852376 0.518524227621838 0.18136
0.18138 1.24563792935789 1.30687715674193 3.24713083030402 0.0746072300314591 0.494662054773944 0.18137
0.18139 1.57013937814205 1.46417077425788 3.34263395180496 0.0812089367569513 0.55300711991633 0.18138
0.1814 1.61968479582413 1.38857198345531 3.28968174930983 0.0807616912406868 0.493221638133862 0.18139
0.18141 1.64550851835965 1.50096196743728 3.22747851637297 0.0885409228538415 0.517390462164981 0.1814
0.18142 1.40774304600971 1.23055777050043 3.355802275541 0.075250967288211 0.502315361652903 0.18141
0.18143 1.2967850476451 1.4120120239141 3.12147024323701 0.0718917823143015 0.47282120294049 0.18142
0.18144 1.39306466741054 1.21928423128039 3.22162666705151 0.0718942987012265 0.510229407263346 0.18143
0.18145 1.70181913045598 1.47624837461982 3.19862258716338 0.0942953361209957 0.491185303265348 0.18144
0.18146 1.74183511610556 1.38709233423734 3.11014892357566 0.0829192212377794 0.507833870521155 0.18145
0.18147 1.55015111149284 1.71501793075965 3.07485718622193 0.0953014091802466 0.469691488473428 0.18146
0.18148 1.67132242683117 1.75477647410237 2.90698462918591 0.0941159337870537 0.477546599841402 0.18147
0.18149 1.5856280233767 1.61741845792143 2.93387869545007 0.0931649649496971 0.46667351602766 0.18148
0.1815 1.82575865084955 1.26603206373259 2.96305914675956 0.0938670966804867 0.45788584517542 0.18149
0.18151 1.82796902373448 1.14040076839813 2.96263623188658 0.0725220442838244 0.483218893887564 0.1815
0.18152 1.15056388578459 1.38958593980571 2.98343571710991 0.065841135800012 0.483311823015792 0.18151
0.18153 1.38839656487621 1.22606109918164 3.20731325821522 0.0718960774118292 0.500899200907049 0.18152
0.18154 1.60900274903687 1.3556594262355 3.1373621627638 0.07854321014636 0.499442733344984 0.18153
0.18155 1.71583173622213 1.26635559837979 3.05227187568774 0.0835793962495526 0.483579453936978 0.18154
0.18156 1.83166820973793 1.34649207659813 3.23143068058614 0.0952073914452248 0.500486292634823 0.18155
0.18157 1.48759350028116 0.97067379452185 3.07738770843676 0.0659604337344709 0.496350080716524 0.18156
0.18158 1.42554387309068 1.24828822465461 3.47050239130399 0.0750898005433765 0.53412364771031 0.18157
0.18159 1.47496461490279 1.44777176831982 3.19590115313431 0.0765998534954729 0.491078524059548 0.18158
0.1816 1.90626305839651 1.28395765737532 3.06742725999853 0.0957864612654935 0.505293307931235 0.18159
0.18161 1.44772631305378 1.57482723087361 3.11516693312322 0.0842570433794473 0.500646875697487 0.1816
0.18162 1.24711143358698 1.19258669899319 3.05661091783166 0.0638147165275617 0.464506381128317 0.18161
0.18163 1.40535914655306 1.35232414556831 3.02987584836149 0.0721979412325862 0.479953100628804 0.18162
0.18164 1.70702371713799 1.20905976306334 2.9934138113294 0.0903442638977634 0.475328085033573 0.18163
0.18165 1.71978920199374 1.29713643355947 3.14943261861437 0.0807720499064354 0.495246858472701 0.18164
0.18166 1.76188323338488 1.50469595403766 3.08850971056365 0.0903612150250318 0.496353780788693 0.18165
0.18167 1.56378941126987 1.36834034118312 2.98697894515617 0.0725409382813446 0.501934297605749 0.18166
0.18168 1.42973418687671 1.14138998444243 2.90999972359368 0.0703554237509549 0.448476907641468 0.18167
0.18169 1.39349881515303 1.17612991728397 3.0012994645121 0.0658227080324894 0.463577608078663 0.18168
0.1817 1.57954935832669 1.35318481508518 3.00466354043844 0.0817220594961388 0.451720622468983 0.18169
0.18171 1.78063852321361 1.70107412617138 2.90425864615813 0.0919868997522049 0.487326866351935 0.1817
0.18172 1.38960198457226 1.74377902515599 3.19198093367217 0.0919954561996054 0.470391346521999 0.18171
0.18173 1.46698729552256 1.30522072257248 3.21499874933897 0.0817760843549193 0.489488425158663 0.18172
0.18174 1.54706739146725 1.12113194679595 3.28103945209194 0.0668323932564997 0.528269498562364 0.18173
0.18175 1.5585807895683 1.45011060018099 3.43754380438562 0.0816477455845986 0.508797515666813 0.18174
0.18176 1.51507835091769 1.57242814053007 3.10146852963185 0.0818155202872326 0.49239056889387 0.18175
0.18177 1.70103139358291 1.45577236776117 3.08428791057644 0.0889006236118164 0.505583818544556 0.18176
0.18178 1.29420439277483 1.63810475280942 3.16942040380369 0.0798488177878603 0.502876148386128 0.18177
0.18179 1.49061053516636 1.75318063071797 3.28033817675318 0.0887274661125657 0.492235966345593 0.18178
0.1818 1.66694321628518 1.86636337749728 3.09424518386758 0.0984545906638587 0.514542275021523 0.18179
0.18181 1.55059398773493 1.62171400244563 3.03448839747005 0.0880707360336758 0.462813885742466 0.1818
0.18182 1.47526644030203 1.3675008816097 3.08770969221924 0.0817490217444436 0.481960831153051 0.18181
0.18183 1.65370522935045 1.61674612446468 3.01428814556072 0.088020822885079 0.509147086360324 0.18182
0.18184 1.48015548519698 1.50687940543169 3.17343304852545 0.0854798504958972 0.490838405207833 0.18183
0.18185 1.56987041429126 1.62155844414784 3.23582555730127 0.0950163210331787 0.506035147359071 0.18184
0.18186 1.39232773963377 1.51113947317852 3.37782201996012 0.0737574194962977 0.527006803160364 0.18185
0.18187 1.75474170139471 1.4738724838619 3.35275955874738 0.0965228590555901 0.520320873618712 0.18186
0.18188 1.33839558424755 1.8205045364698 3.20481500693182 0.0859232528276676 0.509121421532435 0.18187
0.18189 1.6256961579934 1.61346898627135 2.98303984368736 0.0985780089846589 0.459144846102871 0.18188
0.1819 1.59358993346129 1.69270337041459 2.84423574699569 0.0900235223081965 0.452387544728749 0.18189
0.18191 1.59674273328527 1.82112868265356 2.97572425755551 0.0939055224220438 0.519821317691631 0.1819
0.18192 1.5991079602541 1.92464305711505 3.1398862761768 0.106473320790461 0.487851319868425 0.18191
0.18193 1.72636999325235 1.79416604622337 3.36368039047819 0.0976071715844902 0.545900497701097 0.18192
0.18194 1.82395665433299 1.86668868560404 3.33017138667324 0.105595262304965 0.511769092291556 0.18193
0.18195 1.70936251827306 1.52679597513322 3.1763799578158 0.085498126932779 0.50706076810079 0.18194
0.18196 1.46824742864322 1.47920047678028 3.17102967895154 0.0800444931943659 0.51898092120872 0.18195
0.18197 1.76529126115924 1.37391304027235 3.22048966665882 0.0929634141730979 0.49730312077895 0.18196
0.18198 1.58343431660715 1.5439453904093 3.26407095403349 0.0825342174587457 0.526551022403169 0.18197
0.18199 1.84227302451763 1.76244486048608 3.54926169462708 0.105843342852501 0.544689508245068 0.18198
0.182 1.79957135637574 2.04465048671013 3.40507231993193 0.106287956373108 0.543388312608467 0.18199
0.18201 1.41944881766202 1.98858396611867 3.37210680952132 0.0871857929821955 0.57264265588057 0.182
0.18202 1.82260968137621 1.82030038057625 3.07976594954844 0.108198479447011 0.506168432958621 0.18201
0.18203 1.64148999750214 1.68180506156058 3.10644462417554 0.0961238035711628 0.462560083277062 0.18202
0.18204 1.78806698339883 1.65992300665484 2.96161745172749 0.09725008555422 0.485319398186607 0.18203
0.18205 1.79251004556143 1.71737006468265 3.10052448468868 0.0983375703619013 0.500193940135209 0.18204
0.18206 1.50489732746855 1.79864767915231 3.28014293681327 0.0912389328438488 0.518337644890879 0.18205
0.18207 1.64294969455908 1.60942547687697 3.18779684673914 0.0981327150739333 0.49292860210649 0.18206
0.18208 1.56415738610844 1.55078534018582 3.21443920743712 0.0886075926327115 0.492690497930294 0.18207
0.18209 1.6136532996096 1.28968548118263 3.10309983291142 0.0815192551042154 0.482721057974942 0.18208
0.1821 1.77633091831692 1.71940189681208 3.04122416005873 0.0978255488216933 0.498096729875079 0.18209
0.18211 1.49250929637564 1.80282817080822 3.24675238209222 0.0910177096479763 0.486614438984473 0.1821
0.18212 1.63375852293295 1.65470440192172 3.21467206254184 0.0898678125381722 0.541518512636352 0.18211
0.18213 1.56630394780581 1.62325779599339 3.23856993540947 0.0922482259775322 0.512719583862653 0.18212
0.18214 1.39327168153867 1.93145269034114 3.12619292604695 0.0975547892330099 0.500244043367105 0.18213
0.18215 1.30322212671277 1.75908758107529 2.96554903275388 0.0774814785257036 0.472160735128449 0.18214
0.18216 1.48518618973218 1.42364628467655 3.01291097058452 0.0814645705476486 0.477803693258566 0.18215
0.18217 1.80064727305576 1.51896812334877 3.30346921752896 0.092093484409021 0.538280717177379 0.18216
0.18218 1.62552100969876 1.35385868360249 3.20417507460324 0.0890667575148231 0.481199518823666 0.18217
0.18219 1.3925554027473 1.33631461360802 3.27176567273266 0.0768916190544713 0.514828367257821 0.18218
0.1822 1.32373210215443 1.57957085394742 3.24606296160462 0.0804648505043013 0.467354706957389 0.18219
0.18221 1.34968722587229 1.89009046930829 3.12095140409738 0.0941943906663377 0.483197061646612 0.1822
0.18222 1.58890376442625 1.94108010345995 3.29840399641135 0.0968702340686977 0.527363737907075 0.18221
0.18223 1.55236584864742 1.3766591509407 3.27155954585208 0.0822148347131276 0.491103919157768 0.18222
0.18224 1.5787884954587 1.07941480373927 3.17630230578412 0.0670132771969501 0.51830495717984 0.18223
0.18225 1.56684492728926 1.17733790562817 3.20287676301733 0.0820128187848627 0.481936181041755 0.18224
0.18226 1.94281294274205 1.22986557573408 2.94091855681506 0.0891117393616465 0.507522158322305 0.18225
0.18227 1.91044861028032 1.50243900764251 2.90444684149367 0.0917011922388497 0.486152159712963 0.18226
0.18228 1.70582113457076 1.38237159965727 2.90290113290363 0.0881468231759255 0.476492065671277 0.18227
0.18229 1.70397144104052 1.77091531438667 3.24129496285978 0.0938256136019644 0.53428856138954 0.18228
0.1823 1.37237366544149 1.4527800064268 3.33467850649101 0.0796681817136313 0.50752912561636 0.18229
0.18231 1.69978375535274 1.5194882959023 3.35284304836579 0.0939566310087478 0.516760599710582 0.1823
0.18232 1.51823387267516 1.4077886819115 3.0183949693715 0.0842485702197011 0.493605985021698 0.18231
0.18233 1.66468068615998 1.57665225928536 3.05181588681534 0.082885729566614 0.491338049059992 0.18232
0.18234 1.74908322624892 1.46552037049718 3.01197869113436 0.0947820738428514 0.461900130440007 0.18233
0.18235 1.98239659707378 1.27381930157872 3.12066059749051 0.0910260175222153 0.489223645092807 0.18234
0.18236 1.62970037454683 1.25496174024248 3.0771039074406 0.0815555255457894 0.47908310145132 0.18235
0.18237 1.2035133198107 1.24537875262875 3.16131120223151 0.0694509629341047 0.47230529829469 0.18236
0.18238 1.26445712430741 1.62237169092062 3.23668801832922 0.0771311764254176 0.51122494695848 0.18237
0.18239 1.32518163103585 1.6261965414744 3.33751991902848 0.0846975162095565 0.491416499994785 0.18238
0.1824 1.83479177656523 1.78836361895776 3.15840992640365 0.112972795576447 0.506335081865874 0.18239
0.18241 1.80926443362516 1.53766436864297 3.59643951099034 0.0866491818536201 0.563795570706732 0.1824
0.18242 1.59883948527848 1.15708773295944 3.36834418930045 0.0765125124536701 0.518204156193831 0.18241
0.18243 1.32357159061531 1.1001922137003 3.26688355937237 0.0715990775991789 0.486655395087655 0.18242
0.18244 1.3160505247853 1.3396760898129 3.0809399598373 0.0662427173779864 0.481430767061221 0.18243
0.18245 1.23232356443572 1.29883363620171 2.95393427662494 0.0646082278356744 0.454454366600817 0.18244
0.18246 1.62779701926747 1.28919322322916 2.78224740376575 0.0852238598401593 0.443572705834817 0.18245
0.18247 1.60983715692503 1.70651245649932 2.8721247981438 0.0836958441318823 0.466550797220285 0.18246
0.18248 1.74576524177316 1.53343613966121 2.97101652840863 0.0946773718322959 0.491926233149049 0.18247
0.18249 1.68146754248345 1.60597280635031 3.25718746975232 0.0893954854400025 0.503323927751746 0.18248
0.1825 1.41159316497122 1.24351575389905 3.27664926953747 0.0793965981562747 0.492450300501172 0.18249
0.18251 1.55541491176374 1.44884953900887 3.18989011304436 0.0978052969068667 0.478595397129747 0.1825
0.18252 1.70899702058894 1.39271315963236 3.20522154228521 0.0804482118531966 0.512153670878022 0.18251
0.18253 1.67971429988854 1.53977832106424 3.21760946853874 0.090585676522021 0.5189778431825 0.18252
0.18254 1.73219093617134 1.45448642708424 3.16105655893348 0.0942623595222715 0.510821750354678 0.18253
0.18255 1.55888152147055 1.43526235297701 3.28011730626723 0.0878830546460869 0.499093025906153 0.18254
0.18256 1.64758100173435 1.45525720782084 3.06066982746204 0.0916201293191055 0.473334871332948 0.18255
0.18257 1.57784704030753 1.48003444085486 3.0144540392621 0.0861846347549195 0.50123577025454 0.18256
0.18258 1.72875104588793 1.64887589403427 3.0531980718103 0.0983299689975379 0.486409725643515 0.18257
0.18259 1.61012799340913 1.70106578622174 3.30923001133824 0.0948650940530446 0.531455089404533 0.18258
0.1826 1.64284555558096 1.77601978271334 3.34978523424393 0.102569913422898 0.536165203025389 0.18259
0.18261 1.5197759948917 1.82813773139905 3.22240517217994 0.0982746389430784 0.507459672006739 0.1826
0.18262 1.79584887531301 1.60395839435109 3.1112124651473 0.0956952505923179 0.520950720494551 0.18261
0.18263 1.84924737986795 1.39626854361132 3.09886269589004 0.0961795486862806 0.487143841508981 0.18262
0.18264 1.6598014764567 1.09324934130813 2.92433530418861 0.0719092129237042 0.478251357431031 0.18263
0.18265 1.46737445141026 1.53719389223531 2.9897802711347 0.0934456385841281 0.47448437996911 0.18264
0.18266 1.65264211445378 1.72538539936823 3.22570427704696 0.0990139866520754 0.506574304896495 0.18265
0.18267 1.79217935384402 1.67183357358326 3.31827229192416 0.0959801527155694 0.537891205957525 0.18266
0.18268 1.65535727481846 1.8584881651111 3.27359777674819 0.0977555267107858 0.538924952574973 0.18267
0.18269 1.94214846067093 1.9896879233313 3.15494238956288 0.113994847940773 0.486861901201964 0.18268
0.1827 1.42323413683983 1.64369488525359 3.15618520347399 0.0827233748834337 0.493829332606391 0.18269
0.18271 1.68791306827485 1.67450449619306 3.2250284464095 0.105161580938697 0.520777050463848 0.1827
0.18272 1.55095979385521 1.26298703209335 3.21715216665194 0.0702012275685075 0.515930021913502 0.18271
0.18273 1.54035002818893 1.23469251179483 3.24873483743672 0.0795925330426067 0.482758376217213 0.18272
0.18274 1.73787059231981 1.49482040052209 3.28323795665302 0.0954481951066606 0.538660810698598 0.18273
0.18275 1.7733788319808 1.90165947667067 3.51230309018308 0.100404061658387 0.534326479465429 0.18274
0.18276 1.60961701230749 1.98341551178229 3.18017450608537 0.105340797946452 0.499494022176788 0.18275
0.18277 1.33934853981899 1.86652249773677 3.31884773734461 0.0876697701267441 0.514272962271689 0.18276
0.18278 1.47500032122333 1.6925505922885 3.41182515465534 0.0986449290157026 0.524320825988558 0.18277
0.18279 1.57619067455715 1.54506513908176 3.21467947183289 0.0950316241980137 0.493592369284467 0.18278
0.1828 1.95636137250906 1.54837319157901 3.11137578089293 0.0922279706499037 0.506533890839878 0.18279
0.18281 2.2486229120108 1.89946758191413 3.10057987973815 0.123218687739308 0.497920421199346 0.1828
0.18282 2.07360673071011 1.91238214803692 3.09313678879024 0.115903739313823 0.524083371269245 0.18281
0.18283 1.79068134856977 1.59235752402712 3.08091072873694 0.0849065892166881 0.505991106810236 0.18282
0.18284 1.69285942393496 1.61392479186473 3.14408658220043 0.0978369940923448 0.504716057389923 0.18283
0.18285 1.53639652213519 1.74624339722088 3.3231365939015 0.087174869971233 0.536524619040062 0.18284
0.18286 1.79237429624258 1.78876721281606 3.17112404994176 0.0965052969541334 0.518840595107124 0.18285
0.18287 1.76556545627478 1.73695705076754 3.18125871192744 0.09355552279055 0.492573505064201 0.18286
0.18288 1.86806119741702 2.03014450509677 3.12752355287029 0.121401819798495 0.48291067477004 0.18287
0.18289 1.77437825301931 1.63964523048771 3.14530618239576 0.0918543623968371 0.525615501697012 0.18288
0.1829 1.78952090569154 1.62512161150509 3.31148622760377 0.100147464651025 0.542315633907333 0.18289
0.18291 1.47217641095854 1.44032092656318 3.20286364956566 0.084548277014358 0.472830457131374 0.1829
0.18292 1.28944219835199 1.21609676607674 3.09102413415651 0.0664045850884165 0.486081109193008 0.18291
0.18293 1.54332589347242 1.62110226795262 3.29971637530577 0.078999214540801 0.53741139258062 0.18292
0.18294 1.40167523646902 1.56122622327059 3.23506692641979 0.0841757617281442 0.497770337452175 0.18293
0.18295 1.97556227901549 1.71332023866911 3.17860707086561 0.0952145972547814 0.508623116208009 0.18294
0.18296 1.60898886598757 1.79592889053453 3.14875810582208 0.100006788760807 0.533766060825611 0.18295
0.18297 1.78896228136985 1.43444625778637 3.44393231748298 0.0940456921047384 0.526868577279912 0.18296
0.18298 1.33252845363858 1.50182758010723 3.32938399848898 0.0727262064167945 0.521051898030845 0.18297
0.18299 1.49986958844763 1.38993558189575 3.14188480870693 0.0810773602179964 0.482856920436843 0.18298
0.183 1.59758059455958 1.65340214745486 3.02015992530297 0.0899765229810032 0.482607191986354 0.18299
0.18301 1.17150227838643 1.7156044596788 2.94670305837274 0.0732917205095926 0.458204613033565 0.183
0.18302 1.29125726980235 1.837630886705 2.98842821069152 0.0924068617431271 0.468893655323458 0.18301
0.18303 1.68400030212408 1.70839853213594 3.19790098450405 0.0907342040599684 0.502459267521675 0.18302
0.18304 1.4149302849639 1.13244244160481 3.29513684932769 0.0717700561076484 0.491076567434154 0.18303
0.18305 1.41154569098712 1.42251167200861 3.39168578949286 0.0759020996535735 0.503581936245947 0.18304
0.18306 1.60683093438567 1.15920924745119 3.19509487262227 0.0756361562601342 0.522826049395506 0.18305
0.18307 1.79122610088473 0.961616480057835 3.44485520082401 0.0730969238515373 0.515631619003485 0.18306
0.18308 1.18460852461897 1.05091475975493 3.17641609746048 0.0601852343075045 0.492368502390851 0.18307
0.18309 1.35793357633187 1.4232933056698 3.22074562855999 0.0733764555862778 0.485650180304878 0.18308
0.1831 1.4647002004673 1.68798597197942 3.23947586547325 0.0984411453588687 0.514257572863383 0.18309
0.18311 1.6414876275481 1.76256001671504 3.00858203195172 0.10125047335678 0.49004373634547 0.1831
0.18312 1.69956541813685 1.46053250437314 3.23847285917563 0.0886535854160442 0.506693289779754 0.18311
0.18313 1.84432258209232 1.56689822017082 3.19648719704546 0.100104245786425 0.491661661424499 0.18312
0.18314 1.64195782250426 1.62551336682583 3.16595974612574 0.0837822191837609 0.501642074674563 0.18313
0.18315 1.41043704223414 1.50216727408387 3.13997038591392 0.0823090437194062 0.474206699232748 0.18314
0.18316 1.2291126212573 1.10761863257415 3.25764004790637 0.0686171552761763 0.488663753586287 0.18315
0.18317 1.3935345778367 1.64802948540618 3.29988204800159 0.0812812610477387 0.517791836634888 0.18316
0.18318 1.73455506275195 1.56983799210294 3.43073342773501 0.102376079053456 0.526605413570533 0.18317
0.18319 1.56614655744097 1.46802471168926 3.2265089244057 0.0806618030189712 0.514674318749842 0.18318
0.1832 1.45558649560302 1.24746287660938 3.0990829326122 0.0750762890441112 0.475266223900821 0.18319
0.18321 1.77127386751729 1.36543885839788 3.11274062673345 0.0862540826830311 0.492734961283741 0.1832
0.18322 1.86924853086569 1.42542136644121 3.07416186838173 0.0893972223499798 0.50651451629425 0.18321
0.18323 1.72143270590806 1.32637443872605 3.12397559804621 0.0883611653482962 0.490616114850867 0.18322
0.18324 1.90367574150988 1.64216107814911 3.31156108855446 0.0941623342064301 0.537537671689132 0.18323
0.18325 1.53316445860476 1.48927912102319 3.28849485619918 0.0859148641502375 0.492329093457753 0.18324
0.18326 1.49591344466107 1.7559942984962 3.19301171283127 0.0928765637546712 0.505912854676062 0.18325
0.18327 1.82675452371542 1.88038713235921 3.19504586188109 0.104976517834951 0.543077325219831 0.18326
0.18328 1.54999407796726 1.54126233094541 3.25040390108694 0.0857962827926892 0.481888242047029 0.18327
0.18329 1.74222430582519 1.39564942629714 3.26369479328103 0.0854928899183423 0.53600364101249 0.18328
0.1833 1.5229866269309 1.48679416748855 3.44592106125417 0.0912312881253198 0.547336878703117 0.18329
0.18331 1.78866529825043 1.61156026444143 3.26024810856869 0.095110664135675 0.512850553613547 0.1833
0.18332 2.00832080595897 1.44465627893058 2.99107371466328 0.10160117271778 0.479545438459749 0.18331
0.18333 1.68029214081636 1.61645369820935 3.08390104500383 0.0985336542767446 0.492726971762879 0.18332
0.18334 1.27029884204546 1.33405138846858 3.19914082433607 0.0709071165232049 0.505423408448171 0.18333
0.18335 1.44295240021758 1.35556042955282 3.34085286419841 0.081978149542203 0.503162272137764 0.18334
0.18336 1.39699184226371 1.69451278141867 3.66219061597252 0.085124897571369 0.550046552251362 0.18335
0.18337 1.79351445753995 1.99873675524429 3.31341920755066 0.110095432419545 0.543311850721862 0.18336
0.18338 1.47062846781014 1.84601862096953 3.23191784218433 0.0882118915510017 0.51143431505061 0.18337
0.18339 1.37554321378936 1.80691609065665 3.07657661944728 0.0879453325494514 0.497762528591331 0.18338
0.1834 1.86332130513144 1.5002893204884 3.16395728891119 0.0906179299373508 0.514927351176212 0.18339
0.18341 1.89163194195832 1.76924692379012 3.13063275732815 0.103031000669578 0.503380436286664 0.1834
0.18342 1.88473521082029 1.87168918224706 3.32628206112227 0.107193723959799 0.552597746219417 0.18341
0.18343 1.48899221405134 1.42120127906192 3.37962332324718 0.0754037058474163 0.535581626766147 0.18342
0.18344 1.59321064209886 1.88482955779182 3.16684608313712 0.103793317960934 0.494815826310164 0.18343
0.18345 1.77934634300299 1.7401581485216 3.11000951533716 0.0988832994190083 0.489514337574382 0.18344
0.18346 1.96629307550092 1.68866664967363 3.30404481392516 0.0999351961819056 0.53279804290565 0.18345
0.18347 1.93420667205859 1.81544166694551 3.28820086094511 0.106102050751313 0.516638548724969 0.18346
0.18348 1.68301415032153 1.7167994930874 3.21653522320232 0.0904254858877366 0.508167514289755 0.18347
0.18349 1.66704261467682 1.67146871269211 3.38777053378657 0.0905350507663749 0.560157678169024 0.18348
0.1835 1.79420826658107 1.62864835593146 3.22296833106497 0.0999190024377564 0.499128996808612 0.18349
0.18351 1.8139060982742 1.8145850531584 3.15354486728753 0.101124073342718 0.505840925486411 0.1835
0.18352 1.74470359779608 1.95481451618973 3.31725713019363 0.100093108309533 0.544730960936208 0.18351
0.18353 1.73913513232837 1.51896803843644 3.47895302539262 0.091687994503135 0.536765647835384 0.18352
0.18354 1.22468866190592 1.30670126304851 3.45374937092259 0.0687260945783591 0.541701066424015 0.18353
0.18355 1.70802412180506 1.62956641977756 3.3049458660797 0.0895405127248087 0.508050227801466 0.18354
0.18356 1.77344663017664 1.78957322966272 3.07610738097371 0.0966127744646356 0.510516181969814 0.18355
0.18357 1.86241146639067 2.04490300516047 3.11713197092671 0.108378927670061 0.51858993266174 0.18356
0.18358 1.62416871523533 1.86969024768232 3.34619476698538 0.101231663198224 0.517404998175013 0.18357
0.18359 1.61336811666746 1.39935715155601 3.35885321439744 0.0880566102402028 0.520746729998335 0.18358
0.1836 1.81603546582531 1.67098317846813 3.44939220894244 0.0967833537441978 0.549983687549393 0.18359
0.18361 2.01823729788301 1.54336801526464 3.29781772523123 0.100076495580374 0.526933190796424 0.1836
0.18362 1.84676266467022 1.50426688255299 3.22705185751111 0.0919458916368052 0.516799570494899 0.18361
0.18363 1.68730096312705 1.5246576052252 3.20378126548237 0.0855286864828821 0.498165707529207 0.18362
0.18364 1.54389236645403 1.43794959115182 3.08340409198351 0.0849376763106445 0.500577434340612 0.18363
0.18365 1.60912929370112 1.66892352143588 3.12428034249512 0.0965939861838663 0.46614649930589 0.18364
0.18366 1.37765959675269 1.4001628680095 3.12402303764059 0.0718733362484541 0.49538453231482 0.18365
0.18367 1.48057896977226 1.52526465260913 3.17243992069081 0.08262275387361 0.494030272450493 0.18366
0.18368 1.74965465820714 1.55615689314399 3.01588814769292 0.0980898485425978 0.491952399882367 0.18367
0.18369 1.81515132385465 1.99249790175231 2.84189418041669 0.108238482123623 0.468350177002197 0.18368
0.1837 1.89844982806792 2.03188799190661 3.03273135410222 0.116320649494898 0.493790769652988 0.18369
0.18371 1.57139713183889 1.33049249963224 3.08428339582572 0.085119254741457 0.483334700169731 0.1837
0.18372 1.18531858439826 1.28481381137657 3.24184755206752 0.0649818779962417 0.499945135881933 0.18371
0.18373 1.71841934040684 1.17138881543152 3.46191764340161 0.0824150057994829 0.529144369665054 0.18372
0.18374 1.3584926645657 1.43176330079454 3.43866003809421 0.0746782704133297 0.52299899953367 0.18373
0.18375 1.48810301813255 1.42934541717155 3.59433386489488 0.0809452764096841 0.554149987081294 0.18374
0.18376 1.8214058664711 1.36102070364481 3.44567473591151 0.0939485300083164 0.530461557155972 0.18375
0.18377 1.87080426727859 1.30121987082082 3.15376646029388 0.09087418909788 0.494412652565368 0.18376
0.18378 1.87744176619723 1.30383496913117 3.15076112690059 0.0882067286396109 0.511094691173197 0.18377
0.18379 1.67432364183377 1.1839538774643 3.04834833348504 0.0790093130853145 0.469231377338416 0.18378
0.1838 1.63338180304991 1.36237004900407 3.10481051601183 0.0843301202953074 0.48762669357953 0.18379
0.18381 1.73126378148379 1.28051570201721 3.20737145701784 0.0831001419453769 0.503802870155877 0.1838
0.18382 1.53090845841067 1.56000516527957 3.05069329428607 0.0842373134401869 0.475805194301113 0.18381
0.18383 1.49891063904861 1.62274700683119 3.09564116120357 0.0890838582712721 0.489942591785653 0.18382
0.18384 1.90966497630896 1.70485410708862 3.23596489126758 0.0956018511130058 0.523861924066966 0.18383
0.18385 1.92813939000887 1.81025675256509 2.97548856363052 0.107261923270719 0.486462995026908 0.18384
0.18386 1.78752830305631 1.65226790133982 2.98377931183413 0.0983357379124378 0.474775397279451 0.18385
0.18387 1.51747611070476 1.51546599077063 3.0283852535627 0.0886692890617455 0.490236322946635 0.18386
0.18388 1.67063677540914 1.45174904938343 3.07153640400933 0.0854163908461359 0.467689365119344 0.18387
0.18389 1.40341350220501 1.16022012255456 3.19863895648954 0.0749124594190891 0.50463354866726 0.18388
0.1839 2.02817917313633 1.72320060173254 3.33260793929497 0.106709940462535 0.531124383594962 0.18389
0.18391 1.78360640139006 1.5501171977963 3.29805541520515 0.0905658672795279 0.533031399157614 0.1839
0.18392 1.46269696493728 1.15513256127902 3.30765895692037 0.0714417380667219 0.530479046469602 0.18391
0.18393 1.16098097615368 1.21027610313683 3.14308789771568 0.0712354005097518 0.457170971627816 0.18392
0.18394 1.39467834881612 1.45863761542246 3.08184465864552 0.0780995421373816 0.478674434774491 0.18393
0.18395 1.62471509505416 2.09027866708103 3.21585679210688 0.105326532513736 0.527771546708789 0.18394
0.18396 2.03529543741852 1.69262515090259 3.4518308626499 0.102779444298433 0.546760364564845 0.18395
0.18397 1.56672128782632 1.31515062117615 3.16538642953856 0.0859331266374153 0.505847955759662 0.18396
0.18398 1.39316565491425 1.37646973260762 3.3242794199608 0.0742154062735844 0.524163315519917 0.18397
0.18399 1.47105392084593 1.40177798283774 3.15212071267632 0.0776088093479052 0.507106128523432 0.18398
0.184 1.90934848549662 1.53630844204767 3.20122600875225 0.0992432821055424 0.512881610175982 0.18399
0.18401 1.81765273050983 1.54472811812141 3.23899879613729 0.093939959541426 0.519528637405169 0.184
0.18402 1.81830750907442 1.65759161922475 3.05753954180726 0.092742206771219 0.465610313708623 0.18401
0.18403 1.63793440628451 1.56083060728592 3.13274591867968 0.0884495823645831 0.520292386164934 0.18402
0.18404 1.60158788696139 1.21661208958325 3.23574785111453 0.0788578525548657 0.509322403080503 0.18403
0.18405 1.74968153216439 1.52009372164777 3.23048283956396 0.0933744520032468 0.49993889539161 0.18404
0.18406 1.76851358253317 1.56223585774994 3.14232137523176 0.0942810938534864 0.518629744140576 0.18405
0.18407 1.60479376183147 1.83570816549839 3.25222135575341 0.0964502879236401 0.506476264278832 0.18406
0.18408 1.79994157694929 1.57492802025475 3.08228590990412 0.098798729106966 0.500984478600006 0.18407
0.18409 1.3442497232456 1.8279985772555 3.01568600973798 0.0862551818865289 0.490166553400622 0.18408
0.1841 1.48163684493702 1.70680226506957 3.31381093858481 0.093558519521804 0.492235278536178 0.18409
0.18411 1.64586073055744 1.86309529447239 3.20800690336131 0.0973275151389521 0.516550918141182 0.1841
0.18412 1.67769065441581 1.7528386463641 3.23531050404067 0.0979653858104603 0.52180576595668 0.18411
0.18413 2.07341787774037 2.15204852006706 3.13956397744786 0.120946437038681 0.513552702327529 0.18412
0.18414 1.90202253018498 1.69702681733536 3.15368458795629 0.0977835006760419 0.517349213518908 0.18413
0.18415 1.57207290382058 1.51589302852364 3.48321621719184 0.090329798372219 0.526307157409608 0.18414
0.18416 1.58045529165485 1.66043681220903 3.56485002645757 0.0866314525377 0.572471985037985 0.18415
0.18417 1.33126902960353 1.45510877692272 3.47357614158876 0.0830990685741295 0.521866427282719 0.18416
0.18418 1.7074433418827 1.96550265000815 3.32804774751379 0.103197836780801 0.529400183846683 0.18417
0.18419 2.00396772433411 1.98222678054077 3.25758803902181 0.113292881529892 0.513018837664256 0.18418
0.1842 2.37648957914348 1.92204190439178 3.28726174974555 0.118306520478773 0.54711357777678 0.18419
0.18421 1.86381131460244 1.71525507821288 3.42179017333762 0.103247671595371 0.515861285616765 0.1842
0.18422 1.69919541566857 1.4137136466474 3.18772322623481 0.0915587921952131 0.509365029716245 0.18421
0.18423 1.64349904764122 1.77183696637464 3.20944668042123 0.095881325118147 0.506422439798548 0.18422
0.18424 1.71543772684536 1.81480152559728 3.36183284852901 0.110332725243563 0.50379699032022 0.18423
0.18425 2.12420271281397 1.99779533427771 3.30076057498606 0.11469408639266 0.554749136790653 0.18424
0.18426 1.91714664358768 1.82850187596055 3.30454772370776 0.105179818196117 0.526296323843874 0.18425
0.18427 1.76504349344073 1.74939054019805 3.14123387881432 0.0959699176111775 0.51432848649954 0.18426
0.18428 1.91454743139452 1.69695778088337 3.03348046901837 0.105773198391922 0.490923559921309 0.18427
0.18429 2.24326545018818 1.77182576048028 2.91569601073616 0.109888178697111 0.485243034207376 0.18428
0.1843 1.53183675095514 1.68313578314447 3.13075726710679 0.0821833730338421 0.493244068796377 0.18429
0.18431 1.57321555485549 1.56026324939543 3.27829242234161 0.0874790864376042 0.517896721070328 0.1843
0.18432 1.42241919924959 1.70839182018412 3.21110551780002 0.0893030014574222 0.523383453049511 0.18431
0.18433 1.47332757538775 1.35978599096296 3.59898562674507 0.0791067744425972 0.536495026273683 0.18432
0.18434 1.70906457799231 1.79039102251019 3.51500706900918 0.0994778930127416 0.564440734415555 0.18433
0.18435 1.70817269854668 1.72403276697249 3.65925960335111 0.0886317929074845 0.568909266088552 0.18434
0.18436 1.44212716532574 1.18447209760668 3.4095747017472 0.0736568088573265 0.525599529473137 0.18435
0.18437 1.37801863935765 1.48460289698929 3.06091779481673 0.0879044190329227 0.474218693855922 0.18436
0.18438 1.23661211573811 1.283336231687 3.33170153880087 0.0721155125125422 0.50637565560036 0.18437
0.18439 1.72041991403934 1.45123940995426 3.30179710080041 0.0897218010093081 0.506971935202951 0.18438
0.1844 1.76506208894151 1.87618449669745 3.10012232247528 0.105095852992665 0.483732936107161 0.18439
0.18441 1.53250192772132 2.03947204528728 3.18395455646357 0.0958754775705136 0.517086358200663 0.1844
0.18442 1.57018541519877 1.87572657119922 2.97480819577839 0.0979983210280613 0.48588372714409 0.18441
0.18443 1.5111062184196 1.7649977047498 3.25570054880015 0.0858379508006176 0.525799586370215 0.18442
0.18444 2.02494759784298 1.84946401421356 3.27915348848941 0.119508943439495 0.517674633917437 0.18443
0.18445 1.89398977118368 1.54635828381798 3.3251542401347 0.103555384472349 0.538464953361863 0.18444
0.18446 1.89819845973598 1.33620994118595 3.04430360507003 0.0913612333108361 0.47531827450282 0.18445
0.18447 1.71151958491054 1.53257466651841 2.95692501080471 0.0840660559172268 0.47967434335058 0.18446
0.18448 1.69828953006993 1.58337267439821 2.90283355728748 0.0959190363801463 0.48335058017695 0.18447
0.18449 1.64787658934893 1.28301673234282 3.02474870296488 0.0796464835323284 0.473053935148012 0.18448
0.1845 1.74209014103695 1.44623922232886 3.26471448733919 0.0874775701727393 0.534923389440395 0.18449
0.18451 1.8091427020164 1.61198849548515 3.54792864387026 0.0967867452987734 0.541625648158429 0.1845
0.18452 1.89642208073207 1.79440612612531 3.48986715774564 0.0941650320609231 0.559526973509282 0.18451
0.18453 1.58973400080528 1.74102939437454 3.4306869840441 0.0973192677796912 0.525843468190582 0.18452
0.18454 1.62544385157499 1.65274418998112 3.24591759944845 0.0842299812333332 0.48341891086754 0.18453
0.18455 1.6954441214702 1.82805431044429 2.96057780949054 0.102240153653311 0.484230239193483 0.18454
0.18456 1.80452683717708 1.47367503124168 3.23222316025008 0.0984821738542835 0.505166784498818 0.18455
0.18457 1.64855174053637 1.51305350494781 3.12762766224555 0.0889215655966289 0.508939002079029 0.18456
0.18458 1.7763250766071 1.25387860949 3.24388116601358 0.0855282409871626 0.524613314411578 0.18457
0.18459 1.61531998572623 1.48482968963343 3.22206610500663 0.0786752275057998 0.490764727105442 0.18458
0.1846 1.71380328791358 1.67952476372915 3.20799012855095 0.105809779892005 0.503845293874134 0.18459
0.18461 1.77797879742238 1.39657587330945 3.33208462645624 0.0846971214376884 0.537547153567088 0.1846
0.18462 1.41425703865695 1.70326298541378 3.33950528823758 0.0844539252205256 0.537397118358977 0.18461
0.18463 1.37405592469212 1.57850656589436 3.32409274019051 0.0863083326492249 0.502595703478563 0.18462
0.18464 1.52104744438544 1.56390309862976 3.15003214548226 0.0902159037972911 0.499685087278741 0.18463
0.18465 1.79828441007415 1.30861506199826 3.0805569927284 0.098921891873538 0.462919879960708 0.18464
0.18466 2.15819366480638 1.50875569052797 3.15508036998914 0.104758612248137 0.520475762453736 0.18465
0.18467 2.04226316013356 1.41751863280784 3.14575942124549 0.0908805472758939 0.529187143655003 0.18466
0.18468 2.11709877517697 1.35191971995203 3.14414264570556 0.0984926117922671 0.497858940171447 0.18467
0.18469 2.09266711688189 1.43787850991719 3.144615396257 0.0895946777532884 0.501879602640334 0.18468
0.1847 1.34285365830637 1.54595591344965 2.90678778880756 0.0803026384367091 0.477144497558632 0.18469
0.18471 1.2566158849249 1.48992888461468 3.24349951081121 0.0754742492977385 0.509361703625572 0.1847
0.18472 1.45678459390816 1.70021819870651 3.28353577439583 0.0909038210363369 0.504523508063357 0.18471
0.18473 1.53188252818961 1.6919393426108 3.2972672529871 0.091871583524762 0.528641422643072 0.18472
0.18474 1.9554992973186 1.6305809606863 3.51289833221895 0.100937109121854 0.551366779616015 0.18473
0.18475 2.10159299627742 1.34109445663725 3.37910218317832 0.0970208189670376 0.53595995318885 0.18474
0.18476 1.70983026908957 1.05863859309329 3.28522088281997 0.0743455926204576 0.524641770421102 0.18475
0.18477 1.73552952584134 1.43146731310393 3.30575977716472 0.0908855117737126 0.514029098236727 0.18476
0.18478 1.63639565630173 1.63843657901935 3.36781707493472 0.0900349027088496 0.510281449121552 0.18477
0.18479 1.60838941890707 1.87298941009997 3.27892842046319 0.097523113382442 0.525476925768591 0.18478
0.1848 1.93606897026829 1.82648554058799 3.31884362065698 0.102986492007529 0.533682548992152 0.18479
0.18481 1.84685391219788 1.83929491645342 3.22855518773747 0.112492123340469 0.510398459669226 0.1848
0.18482 1.76930300744281 1.67355646065523 3.19210637670464 0.0925904470763395 0.503808878851774 0.18481
0.18483 1.47145639012422 1.46986636432755 3.27477881727236 0.0752166497877876 0.505482180125809 0.18482
0.18484 1.4697693584307 1.65264930134905 3.20133091043098 0.0803287191358328 0.521637013552605 0.18483
0.18485 1.89019166950546 1.89459784472629 3.1054785171609 0.104688540972454 0.531778452380152 0.18484
0.18486 1.85010589663771 2.07941323683569 3.11069514665441 0.109088728210116 0.510558441305987 0.18485
0.18487 1.85876247617693 1.8971015039265 3.1724333349948 0.101474446763441 0.540785784712956 0.18486
0.18488 1.45852335492125 1.74747070525599 3.0952216443608 0.0886555672010926 0.478294745332199 0.18487
0.18489 1.32472692053788 1.47653815762012 3.211611796892 0.0780549126588088 0.496537850429236 0.18488
0.1849 1.40659351879187 1.34579258113402 3.16533051137614 0.0741745882433238 0.503564164226861 0.18489
0.18491 2.15435167212319 1.75976286104524 3.27148041721915 0.112858521775765 0.534602746461443 0.1849
0.18492 2.08230292273483 1.97991744604978 3.52253631691781 0.114439508833243 0.557538059355962 0.18491
0.18493 2.24580697832298 2.04096933031757 3.32932721475276 0.121244287478931 0.530770641692027 0.18492
0.18494 1.64549167335809 1.66675810036387 3.43038486298407 0.0874927417072217 0.543837124771632 0.18493
0.18495 1.57781752983842 1.50408361704987 3.25832998009472 0.0838647186467342 0.505932953801294 0.18494
0.18496 1.47986738987367 1.46662783967271 3.19491115424725 0.0830440370019626 0.512843922055968 0.18495
0.18497 1.761461526323 1.66640732924899 3.17261885891625 0.103106313583783 0.479105708373085 0.18496
0.18498 1.73622682071217 1.7489525014571 3.00626166136521 0.0991056044737627 0.502601310279969 0.18497
0.18499 1.85300106438805 1.5322458064874 3.57511143939055 0.0975535170413407 0.554779174222172 0.18498
0.185 2.1816777141121 1.51663106124967 3.24864550980208 0.097780640142685 0.516559390187423 0.18499
0.18501 2.12411916979772 1.88359638906848 3.03780056753271 0.128509240875712 0.502924017777764 0.185
0.18502 1.71454760215079 1.4461850773933 3.1281948437012 0.0834918609188011 0.489301488511439 0.18501
0.18503 1.50040783114355 1.58798556999481 3.15352047366645 0.0948629730998158 0.494250800517596 0.18502
0.18504 1.45135150511164 1.55248878161138 3.1768787867202 0.0778953607603754 0.514627947426206 0.18503
0.18505 1.70833423954197 1.84101091108654 3.3717201007478 0.105572249991873 0.530846016683636 0.18504
0.18506 1.62564194282242 1.59543608291754 3.37622879288071 0.0873817550548057 0.5345479712274 0.18505
0.18507 1.64410024446394 1.58687200551667 3.42044464041542 0.0857775528373731 0.539583305697598 0.18506
0.18508 1.79758996138284 1.52368114272966 3.36748536527355 0.0896980494579527 0.53949478011854 0.18507
0.18509 1.6683608440547 1.38530990699904 3.34168664617398 0.0874205086391123 0.502436606903949 0.18508
0.1851 1.52316571208859 1.46119234018473 3.154994073938 0.0776426468424944 0.512999449350225 0.18509
0.18511 1.51353078592162 1.62686281245403 3.36748732599963 0.0876230595221075 0.518706909053485 0.1851
0.18512 1.49790801212504 1.8200492668937 3.2623576405818 0.0846246087043128 0.505926778719291 0.18511
0.18513 1.76859803759309 1.93444472464639 3.26527874621567 0.110154848066821 0.5092019795124 0.18512
0.18514 1.5247506517272 2.16441525624093 3.17430838284802 0.101041669474666 0.507233517626686 0.18513
0.18515 1.7601043227596 2.01460951477939 3.23692497850392 0.100511522198519 0.548817093371188 0.18514
0.18516 1.69116909687557 1.83650733002214 3.23528573903083 0.0956961425924728 0.54340697988705 0.18515
0.18517 1.90157043266368 1.53739071371771 3.22296900971663 0.102705721988842 0.486921715100497 0.18516
0.18518 1.6596658607306 1.35972884956888 3.36588276008997 0.0885661066214918 0.528647681394902 0.18517
0.18519 1.72508642386162 1.56142193657243 3.2010571389083 0.0874992277194395 0.520105201204032 0.18518
0.1852 1.52309190125882 1.4176054781305 3.20728695303992 0.0877354015130136 0.502031775833836 0.18519
0.18521 1.89550411548998 1.41085328988212 3.29034466814705 0.0934043915162436 0.51417350192761 0.1852
0.18522 1.50177574901608 1.81722933434685 3.30039417904981 0.0995116357493758 0.513050114856787 0.18521
0.18523 1.71135150808404 1.69476322736394 3.13895257538668 0.10156256011276 0.504146529246799 0.18522
0.18524 1.75592656136714 1.54336676933517 3.20079269617673 0.0873684831310177 0.53056386132048 0.18523
0.18525 1.91359661221049 1.70622557846804 3.16408194802984 0.107411726083537 0.516845530067328 0.18524
0.18526 1.97422032493916 1.53416335513306 3.22445543061841 0.0981514123732262 0.511431543001648 0.18525
0.18527 2.13821796637347 1.84023829331788 3.24460950831061 0.109415040013275 0.509936066191052 0.18526
0.18528 1.67775382423403 1.61512339845131 3.12543494916473 0.0907888316466417 0.494811259721414 0.18527
0.18529 1.74686057925958 1.81868285112176 3.19634660406686 0.107557882845679 0.479817565406387 0.18528
0.1853 1.63138764969673 1.47182640317437 3.17116168949787 0.0841969817457335 0.513609962794352 0.18529
0.18531 1.65033770340226 1.96841209855274 3.30592468001156 0.107451467239878 0.505974861546126 0.1853
0.18532 1.60201663924317 1.7308545089238 3.44082682966769 0.103378677399585 0.546799288351134 0.18531
0.18533 1.44991221315185 1.63488201564353 3.35198493179191 0.0892473305537978 0.49729388012826 0.18532
0.18534 1.58129996401486 1.53663647480234 3.1572008992726 0.0950848046060896 0.499202259012304 0.18533
0.18535 1.47914138369134 1.3334991801163 3.44859533138411 0.0832884750290183 0.532199572497011 0.18534
0.18536 1.54654137740199 1.1237832734578 3.15081488286346 0.0763013376183312 0.470346743447504 0.18535
0.18537 1.99136593515878 1.48792179739967 3.32710207822342 0.101103972090777 0.528547985595262 0.18536
0.18538 1.93582399419686 1.94632058478223 3.33363872240157 0.107726638782444 0.546188283282694 0.18537
0.18539 1.59922033018762 1.7417116969278 3.42264069107674 0.0933738775507183 0.546661133665232 0.18538
0.1854 1.17099736911402 1.70055132696482 3.57338818769198 0.0846372359462799 0.556891850694112 0.18539
0.18541 1.35277166465117 1.56721499697451 3.25709663790703 0.0823019885928467 0.518313557662005 0.1854
0.18542 1.58519967046428 1.34250060735157 3.05418236311565 0.0768121342648472 0.48170704338408 0.18541
0.18543 1.88194115616468 1.39182065140835 3.0118340216001 0.0962644386010948 0.477336464229548 0.18542
0.18544 2.01726250301941 1.77457620120574 2.84705461378261 0.104367977292706 0.467605693781848 0.18543
0.18545 2.14535453057624 1.63390374540231 3.3222574792906 0.106460405350757 0.545122718451502 0.18544
0.18546 1.60577871503884 1.47276857093006 3.35177379353702 0.0847788168570037 0.535413671471628 0.18545
0.18547 1.88405557935351 1.86449465093829 3.25657264125412 0.106796851682423 0.533107622880542 0.18546
0.18548 1.68597002125665 1.32818237692452 3.31517756938817 0.0811991972214978 0.51399136375023 0.18547
0.18549 1.52663178513134 1.28811644090893 3.3680212566798 0.0760181404004324 0.540300857233833 0.18548
0.1855 1.51112580232704 1.52114310368464 3.31980253427481 0.0799474601554236 0.526492585591975 0.18549
0.18551 1.68215998839322 1.80230658641331 3.52589507788129 0.096093151212842 0.553342356353712 0.1855
0.18552 1.73381843599928 1.77720243648585 3.25754039149769 0.0893048077517939 0.534305500822675 0.18551
0.18553 1.6431542090424 1.66902727462475 3.18571252255806 0.0939757687608666 0.503784174803245 0.18552
0.18554 1.78593396439238 1.69974439352107 3.05806359370997 0.0967769888306437 0.51103624471511 0.18553
0.18555 1.78773155240427 1.85828234586333 3.04172949299039 0.10278866157796 0.490765241696389 0.18554
0.18556 1.61866477201015 1.83153951427709 3.30485675355784 0.0957734683310295 0.519589441987805 0.18555
0.18557 1.70594957156247 1.57437502832839 3.18709228113325 0.0924862342770438 0.522157664854636 0.18556
0.18558 1.56125506135489 1.81584038211626 3.48605723081038 0.0931415390610946 0.557187340193989 0.18557
0.18559 1.54621550304507 1.94582727946785 3.41451082661593 0.0974100315567982 0.547857930913018 0.18558
0.1856 1.58593707775946 1.79570809633044 3.25871771809419 0.0938181381937744 0.5091098598664 0.18559
0.18561 1.90227303730738 1.41983755486417 3.08616298464904 0.0984750724017089 0.506141098913384 0.1856
0.18562 1.68224324966554 1.58903541272926 3.12835850580744 0.0958754233482589 0.481397325561823 0.18561
0.18563 1.61291188274917 1.66759376709085 3.21905888291146 0.0887182245348458 0.508579224770138 0.18562
0.18564 1.6918573508704 1.53679253001346 3.11875716589576 0.0837603872894871 0.498350104577041 0.18563
0.18565 1.87198551727419 2.04509117562237 3.24712851179934 0.113973645764626 0.51097133717622 0.18564
0.18566 1.89382713837789 1.92881724305382 3.33875193918923 0.106624779859255 0.549396423338274 0.18565
0.18567 1.68206409260644 1.65135271887078 3.41509554800191 0.0894135651400473 0.533083867360273 0.18566
0.18568 1.83097627825281 1.53935351316089 3.41907869528733 0.0884675022541161 0.540708269835687 0.18567
0.18569 1.44942844382089 1.50555363725342 3.33939302307048 0.0848446984872994 0.506362297895862 0.18568
0.1857 1.74156064479658 1.68232833214864 3.17243863944297 0.0926094551484113 0.505165791312423 0.18569
0.18571 1.8400051068887 1.33644079497889 3.02475661044562 0.0923689052958576 0.489153443229407 0.1857
0.18572 1.70809038945354 2.06642111750207 3.16409268964543 0.11280152393142 0.509130510043102 0.18571
0.18573 1.7362875598808 2.06334674954635 3.33510167512016 0.0998805388833455 0.545914263335967 0.18572
0.18574 1.50836869311701 1.79133184914904 3.3713401929943 0.0970412204432464 0.535655003428322 0.18573
0.18575 1.4930398056083 1.36863588617501 3.53505507846667 0.0830560319008121 0.518601922226547 0.18574
0.18576 1.65947379840384 1.89576209251102 3.48616799236578 0.0920956034853963 0.569317039325396 0.18575
0.18577 1.3479674512395 1.6260373905337 3.41726264010279 0.0784321795193555 0.551509808409712 0.18576
0.18578 1.63732690203378 1.46174008591769 3.41899346039217 0.0882913517120196 0.531796418927841 0.18577
0.18579 1.87062227053883 1.53880172244684 3.23204083479707 0.0971128498974443 0.520758015819529 0.18578
0.1858 1.77122939127494 1.72969955656615 3.24688293752442 0.0934911796434728 0.51794882123566 0.18579
0.18581 1.69139087833078 1.37543067796889 3.11688926826659 0.0873922933015128 0.480411553653565 0.1858
0.18582 1.55724667859427 1.34101890923756 2.97745324776212 0.0758230307887127 0.500059514320622 0.18581
0.18583 1.99615107063649 1.78958836136482 3.08829781094653 0.11515911841112 0.481839694388905 0.18582
0.18584 2.13016563187873 2.07726729059055 3.05723486915843 0.123868855004048 0.504362775903666 0.18583
0.18585 1.90687936939804 1.87457744736169 3.17624977927753 0.105801504286537 0.534659750647555 0.18584
0.18586 2.04196597228257 1.48868596123164 3.1678904431921 0.0959228589087234 0.521364500367208 0.18585
0.18587 1.60321385945573 1.41032924712826 3.10789795232613 0.0840462528060387 0.494925756510773 0.18586
0.18588 1.66991071091537 1.65620488703197 3.31170358205858 0.0982382643523483 0.51186688120405 0.18587
0.18589 1.91926347457835 1.85179228333065 3.35536732762531 0.105642426799273 0.547383054660637 0.18588
0.1859 1.71454066524096 1.89008645982532 3.29610689489805 0.0995485541415564 0.52435758867221 0.18589
0.18591 1.86778266718603 1.71586961759174 3.32472584739968 0.0955230958848556 0.53305424323216 0.1859
0.18592 2.00606710430974 1.81943503529548 3.33159390357599 0.10276296452157 0.542027828972279 0.18591
0.18593 1.70614261432766 1.56650365952583 3.37050925710571 0.0884526455103312 0.541533890845119 0.18592
0.18594 1.65942836790247 1.60286442225109 3.60043433969426 0.0868435817707748 0.549479194804794 0.18593
0.18595 1.94965725642821 1.84131105642013 3.29424711695697 0.110029481125097 0.513184190330613 0.18594
0.18596 2.02637348657707 1.81376200503989 3.33767450940683 0.10657224747416 0.542478453087116 0.18595
0.18597 1.85835930379804 2.19063660030535 3.22115568676844 0.110399748161146 0.534597980464659 0.18596
0.18598 1.63661226907764 1.75802022870112 3.30064474965371 0.105908764964557 0.535235458373608 0.18597
0.18599 1.74177134162915 1.81675592001596 3.31718722610344 0.106362954799651 0.524049707575436 0.18598
0.186 1.54717252256079 1.80913031939092 3.21016982630343 0.0949575224011743 0.507848082260268 0.18599
0.18601 1.63518780403297 1.74131138248303 3.23172392643889 0.0958459379058504 0.514309512304801 0.186
0.18602 1.52253928083191 1.30461311883528 3.15302549930747 0.0736596236217218 0.490346365023116 0.18601
0.18603 1.73968991105102 1.41687523489169 3.19135704985197 0.086748026539445 0.520706126747386 0.18602
0.18604 1.87140097920097 1.42371920050528 3.29886504276274 0.0886121747265444 0.52931096375922 0.18603
0.18605 1.6572952327267 1.44270848818678 3.25484292236193 0.089132996927633 0.496070274786067 0.18604
0.18606 2.09129412457413 1.72007084208637 3.20255228572942 0.109650476294993 0.518896010642686 0.18605
0.18607 1.96616899313645 1.78293576538367 3.07957231010213 0.0958106020631379 0.5271310345242 0.18606
0.18608 1.87193717154516 1.6246441344608 3.27621736723751 0.0973197694964365 0.519003977585517 0.18607
0.18609 1.68816854008212 1.29922081256133 3.28693312928751 0.0834198216683455 0.525289199348106 0.18608
0.1861 1.59977691391153 1.40756855253205 3.3712387133385 0.0857755425376278 0.543101528162425 0.18609
0.18611 1.83850337459611 1.47806967726647 3.53202236366884 0.0992766536785563 0.552221950105795 0.1861
0.18612 1.94579541706708 1.64351321561114 3.65399458312149 0.0986563805439529 0.556266715939605 0.18611
0.18613 1.59393110678307 1.59104565734719 3.32038301129678 0.0831668645121286 0.521160199261918 0.18612
0.18614 1.65833782759988 1.72077797616333 3.08372374398314 0.0883711812193686 0.513177434853976 0.18613
0.18615 1.95117657460846 1.51426748027991 3.05097223353863 0.112682377175744 0.467572246729139 0.18614
0.18616 1.93417958589343 1.47598503093483 3.1999708260537 0.0902243844649711 0.521354539998103 0.18615
0.18617 1.94700798952868 1.61348785925754 3.25364658622342 0.0909311187453909 0.528321431404704 0.18616
0.18618 1.36911987449839 1.88657683665136 3.25078602882061 0.090439506758039 0.535821953616953 0.18617
0.18619 1.82716718053446 2.02746302367744 3.19640180965688 0.1040931280913 0.514355361179576 0.18618
0.1862 1.5325945637738 1.62375035744623 3.04009429269896 0.0839588354384033 0.516023525113343 0.18619
0.18621 1.59767206663437 1.32112541185086 3.14740839201166 0.0844109016852072 0.48946846440678 0.1862
0.18622 1.71852553519177 1.19883253157836 3.17290801930883 0.0805218647744581 0.498108750843908 0.18621
0.18623 1.28235875338441 1.67374506829617 3.1389205040169 0.0810005407325191 0.517260099992932 0.18622
0.18624 1.80204687871522 1.75480434714412 3.30399062908983 0.10078321352102 0.53754722031 0.18623
0.18625 1.904288294971 1.38970550131545 3.34575514001751 0.0919214736996533 0.542403341677653 0.18624
0.18626 1.87658187515679 1.49660977650113 3.17558585398819 0.0954821021016435 0.503863525389467 0.18625
0.18627 1.69779804322079 1.50878705250868 3.21065824779369 0.0879236702791186 0.510154190384392 0.18626
0.18628 1.77522578945886 1.71506349777619 3.12292242656497 0.102306399233759 0.478032948748581 0.18627
0.18629 1.69534736379688 1.72054485342706 3.34778731767243 0.102225403654555 0.518459321483785 0.18628
0.1863 1.61508184340353 1.96108277807424 3.45498466431742 0.102958525160261 0.55557295106873 0.18629
0.18631 1.67259082392787 2.13020481077303 3.38951368834371 0.109854402966007 0.530902490296129 0.1863
0.18632 1.9482211808146 1.98077374020808 3.18614014708536 0.11415552698322 0.535628175184916 0.18631
0.18633 1.78417962049254 1.62786203087435 3.32357997336051 0.0950646229766177 0.507590707610088 0.18632
0.18634 1.50641336917588 1.21809840446088 3.26168591762809 0.0731216931698358 0.493814646733432 0.18633
0.18635 1.58495184842684 1.42362307401778 3.07142088262635 0.0899727628750777 0.488686581889433 0.18634
0.18636 1.58599129728212 0.954610256045196 3.14912593522287 0.0689132816653294 0.48459741109856 0.18635
0.18637 1.76154453042454 1.29713688087122 2.93752024686643 0.0914361801242954 0.435081660639569 0.18636
0.18638 1.61829621249011 1.26905670098983 2.76975776405378 0.0781442936593898 0.431394456769305 0.18637
0.18639 1.23345765882956 1.16411010767575 2.60369938500446 0.071131463860128 0.411388453281558 0.18638
0.1864 1.34879942957538 1.08421884131297 2.6797879660861 0.0664414523425787 0.411741216534931 0.18639
0.18641 1.85345738103213 1.20422983941636 2.55301594334161 0.0879094745900161 0.443535201244723 0.1864
0.18642 1.87324101679875 1.30907541773203 2.62827170783709 0.0904009751871027 0.418030569035739 0.18641
0.18643 1.59775318207044 1.41087993736023 2.56511271042816 0.0861253361695347 0.440688119384668 0.18642
0.18644 1.76029808226796 1.24064227748638 2.37486153485846 0.0859819899537922 0.392880146682119 0.18643
0.18645 1.81789678534597 1.24055323055286 2.2816642630844 0.0911589993178607 0.373826899141018 0.18644
0.18646 1.64408453554613 1.48815794043484 2.36102354697581 0.0892359952631429 0.40129785047973 0.18645
0.18647 1.57207508685376 1.41741699761814 2.57627170466505 0.076992158323951 0.429300621559102 0.18646
0.18648 2.02075376435201 1.34099250645795 2.77276032448194 0.0928592403928369 0.48449148448456 0.18647
0.18649 1.65329854682301 1.07362811981394 2.91629719282764 0.0734145875460802 0.436829682131708 0.18648
0.1865 1.61163534233282 1.04910188460707 2.94960026856863 0.0674278979761103 0.482873093313048 0.18649
0.18651 1.59932768387034 0.885723726567001 2.97408936873193 0.0677942217823374 0.439454150740183 0.1865
0.18652 1.54982503046123 0.783682692134597 2.9941030992341 0.0645247691585387 0.468118701255872 0.18651
0.18653 1.55336006543238 1.07143138821127 3.16388313127836 0.071986601659467 0.475277666237145 0.18652
0.18654 1.72431954428469 1.19586801370255 3.205595313928 0.0811719912630239 0.492076756164437 0.18653
0.18655 1.58541647751471 1.44725149987285 2.8759830880051 0.0905037983726047 0.442651423938221 0.18654
0.18656 1.46457912402837 1.61229382308296 2.98129636078813 0.0791813173942252 0.485748726627475 0.18655
0.18657 1.60530263074784 1.80747068661272 2.58228443091398 0.0948463529716149 0.416736328636797 0.18656
0.18658 1.68671454482743 1.35980780817151 2.59035754671707 0.0863613423768547 0.435863474740792 0.18657
0.18659 1.48150379714689 1.35325213718943 2.79866022805785 0.0776700024115504 0.437629804746998 0.18658
0.1866 1.6059301498149 0.848157028653679 2.53858536170969 0.0671693710449445 0.402787142866701 0.18659
0.18661 1.67207685361151 1.33749220297206 2.57226138782359 0.0825859928551769 0.418755647449045 0.1866
0.18662 1.77099959004991 0.963776431480403 2.52595181382068 0.074802589917873 0.426019022863186 0.18661
0.18663 1.50626350456997 0.93466827577573 2.47046627382398 0.0764038880415131 0.398817128711446 0.18662
0.18664 1.6200238750557 1.30700295989848 2.60324116000574 0.0790520125101755 0.424686387946973 0.18663
0.18665 1.35620256290991 1.16475822598506 2.80915594833733 0.0653932353460717 0.437185142684678 0.18664
0.18666 1.73470076041835 1.03721678702808 2.83542415280014 0.0842075646605789 0.465632478891884 0.18665
0.18667 1.82237314887928 1.20901707933345 3.08206825197212 0.0795817021865659 0.495497109933608 0.18666
0.18668 1.64365045825668 1.18922535839267 2.83275980897417 0.0799447529416344 0.435085083711421 0.18667
0.18669 1.15568841721008 0.840257239567254 2.63127275893022 0.06094209282528 0.422988532806079 0.18668
0.1867 1.3868180683525 1.28264838725363 2.68722274977378 0.0688340536132569 0.40853368982251 0.18669
0.18671 1.59137117392151 1.11830769453493 2.56952297310342 0.084672028035437 0.409468621344642 0.1867
0.18672 1.58826064431668 1.04992896150663 2.59384867242231 0.0717295497417918 0.404757684634311 0.18671
0.18673 1.55969527993509 1.26671240451027 2.96709840859023 0.0759053020185518 0.452829511739675 0.18672
0.18674 1.54973434362316 1.22709148572518 2.86559420780249 0.0806080743877289 0.456637427753529 0.18673
0.18675 1.62954875240086 0.9385700980205 2.83377871655056 0.067973932854416 0.457296083836541 0.18674
0.18676 1.47951779226429 1.04849367344629 2.79581795740598 0.0703330152008112 0.422436967383318 0.18675
0.18677 1.38620348599498 0.845129728304147 2.67191921500515 0.0616265145898103 0.411894318911828 0.18676
0.18678 1.23452262326236 0.853998179321864 2.70966370220817 0.0550894583061263 0.427618158509248 0.18677
0.18679 1.45656758722577 0.708172563238705 2.9872829260986 0.0589715468471776 0.474582913950853 0.18678
0.1868 1.82248550125192 0.479355578003644 2.84598158495886 0.0669164256414019 0.445488282111019 0.18679
0.18681 1.69742760461965 0.951897647782213 2.7728890475935 0.0706750975142311 0.426691642202228 0.1868
0.18682 1.49276788670812 0.915570530238188 2.72790409827321 0.068708638696089 0.433479869435451 0.18681
0.18683 1.40460142232643 0.902181486291732 2.51845968481338 0.0707316587925355 0.379933639069411 0.18682
0.18684 1.21136202480077 1.10424253296821 2.3916062297709 0.0649286754743154 0.389112347910411 0.18683
0.18685 1.22163124152088 0.755816981770381 2.39396533875997 0.0523140842056166 0.379970049779684 0.18684
0.18686 1.51842891993223 0.855409666727812 2.49984238805812 0.0563398634458737 0.408884035476284 0.18685
0.18687 1.7883160124971 0.80757952902477 2.55803790498762 0.0755522401395758 0.423298659903483 0.18686
0.18688 1.67940604364727 0.880901337091925 2.31188923803695 0.0759959088710285 0.405926812926885 0.18687
0.18689 1.73154834079154 0.937745516435171 2.46087441558619 0.0798005616144135 0.413144232078493 0.18688
0.1869 1.76637465315597 1.04789301284993 2.49854520552597 0.0768751326733331 0.404013725520685 0.18689
0.18691 1.43241572163109 1.1004352325525 2.77939717714119 0.0688050228083911 0.423427505524076 0.1869
0.18692 1.35369600567436 0.958235996294615 3.00322554922831 0.0643724158280819 0.482358429983412 0.18691
0.18693 1.21957177749985 0.713306317180099 3.06755692474204 0.0535777450852962 0.460662483404218 0.18692
0.18694 1.91704058928298 1.18036476532137 3.04794207448654 0.0879495112021109 0.484113961427558 0.18693
0.18695 1.62249699795999 0.832889762159788 2.85458581250916 0.065417675042655 0.423104623991738 0.18694
0.18696 1.5997996301019 0.902990328802378 2.77254281128353 0.0661216658197585 0.455332424350434 0.18695
0.18697 1.70602001253565 1.08301107538005 2.83246347300087 0.0777626914596889 0.45134927762977 0.18696
0.18698 1.37052345780528 0.999026472131838 2.90371604452194 0.0702934215428982 0.441050914231195 0.18697
0.18699 1.79657445676487 0.899332037521872 2.65970855219568 0.07866640568452 0.428307009864855 0.18698
0.187 1.4370800524916 0.958693076605027 2.60158798123037 0.0726601825743925 0.372927155353605 0.18699
0.18701 1.43041266117566 0.910887010357528 2.59622983197028 0.0654954943415472 0.409891448557449 0.187
0.18702 1.96995849816353 1.22946823012431 2.59693529545735 0.0940398409433635 0.419942836409999 0.18701
0.18703 1.6505317580146 0.964166051588843 2.46032787008676 0.0746554097270144 0.409083683635457 0.18702
0.18704 1.67160100094339 1.09162220862145 2.55996366533962 0.0782936364483256 0.413283014789943 0.18703
0.18705 1.42409702240917 0.970366083628915 2.44540012586065 0.0726366401292397 0.409599199272118 0.18704
0.18706 1.58016719565923 0.820181613675656 2.49945681716672 0.0692120331559427 0.38238138948261 0.18705
0.18707 1.67471149953074 1.03103869898525 2.36639422681218 0.0797269664347311 0.390761492522633 0.18706
0.18708 1.59077664283803 1.41312587318537 2.73749787095428 0.0844081170454926 0.403309318990555 0.18707
0.18709 1.27331143796424 1.02291292614002 2.82625184858498 0.0626026832516719 0.438712526380208 0.18708
0.1871 1.37517125932978 0.760645761264409 2.96791316650944 0.0602752367070033 0.454716830099084 0.18709
0.18711 1.41814562951612 0.960284366827415 2.84312698780614 0.0691598624549312 0.444742331972325 0.1871
0.18712 1.12936583956444 1.40096605858457 2.83399629727727 0.0681871693578675 0.429097213399398 0.18711
0.18713 1.27003843362922 1.37009068945399 2.71907564951244 0.0778843844571968 0.437922924596919 0.18712
0.18714 1.65630684364087 1.31947583441659 2.71381665503471 0.0873269726250079 0.427913159489915 0.18713
0.18715 1.69810609446399 0.984660985060268 2.88964216611538 0.0825429819892624 0.44873991919434 0.18714
0.18716 1.3530924891049 1.29862987152873 2.62501055312466 0.0701764598933484 0.4160237270168 0.18715
0.18717 1.52832983691039 1.30375685315032 2.7602262325271 0.0806722741090338 0.452274536952612 0.18716
0.18718 1.59640908469144 1.05260614149783 2.81389689182207 0.0742039520051976 0.430207792844307 0.18717
0.18719 1.5925496127293 1.46251452438187 2.69222195292549 0.0884158166643841 0.452290021442619 0.18718
0.1872 1.56254172252987 1.57382404752272 2.71075800227546 0.0837498750990199 0.463283024205713 0.18719
0.18721 1.74084825907766 1.39229249006032 2.73822583675708 0.0809967279876697 0.440176090019092 0.1872
0.18722 1.6701306635488 1.21722736968738 2.67280316132009 0.0840708897080742 0.424260398990283 0.18721
0.18723 1.23824741102775 1.24262743318731 2.72015971497606 0.0749145879602506 0.434792287068963 0.18722
0.18724 1.3877545403816 0.9953315790211 2.76352143941882 0.0673478810596237 0.428418082197 0.18723
0.18725 1.61261397516049 1.02284599827186 2.63735477444736 0.0684368958816723 0.400402659348164 0.18724
0.18726 1.64653221318308 1.13546225295175 2.69965663090254 0.0725291393126031 0.456708385777412 0.18725
0.18727 1.57854346149386 1.16577762750213 2.86318295937877 0.0744609895486133 0.456576065150607 0.18726
0.18728 1.81366795778104 1.05957281667842 2.94010229345669 0.0880221710098848 0.449377896824814 0.18727
0.18729 1.40725224386712 1.71941240292437 2.72394798940437 0.0911641416337584 0.44204842277223 0.18728
0.1873 1.48958219764409 1.3384885678508 2.80200592952292 0.0860339682241834 0.45813103488414 0.18729
0.18731 1.54961763350834 1.15503981020906 2.86606161632036 0.0699594507750048 0.465488607097605 0.1873
0.18732 1.72235483590594 1.38635504934736 2.82029091907868 0.0908477009792761 0.461856104116713 0.18731
0.18733 1.95175752219794 1.74036892654146 2.73796586489517 0.101196102499786 0.461282950259501 0.18732
0.18734 1.81833371863634 1.56550776178016 2.66440289538844 0.0946743772894205 0.425576833326542 0.18733
0.18735 1.2978639566151 1.09751245111638 2.63314603142486 0.0700763686125833 0.389915481758333 0.18734
0.18736 1.36709161026828 1.40050703247035 2.78046641296547 0.0806822267998322 0.445088481973799 0.18735
0.18737 1.28400858929605 1.08442540369301 2.77167216331037 0.0671172632419188 0.436883120188059 0.18736
0.18738 1.89644897865768 1.460273166864 3.10741638466859 0.0925078394557839 0.484598798280123 0.18737
0.18739 1.93646476937734 1.44240271323347 2.96254473555073 0.0997969143113834 0.472843961401469 0.18738
0.1874 1.71909897086254 1.23715745888868 2.93968155036121 0.0776066332039044 0.476946005177568 0.18739
0.18741 1.73981731384583 1.36012411336368 2.65438757861022 0.0829596807930063 0.442583776510836 0.1874
0.18742 1.6029653804546 1.32802035616732 2.71041716366154 0.0835686214105952 0.435786215137541 0.18741
0.18743 1.68435071426015 1.0321635991228 2.55802708629583 0.084082952522228 0.419907659927944 0.18742
0.18744 1.50539026554252 0.994839773319458 2.75599448191024 0.0733738345244098 0.407186552545399 0.18743
0.18745 1.45021219357778 1.21951961001113 2.69889326687649 0.0728229997536711 0.451217195109836 0.18744
0.18746 1.77773681718041 1.05902783097406 2.8072706114311 0.0832070315821756 0.440292269149917 0.18745
0.18747 2.01324698846255 1.14595926772168 3.00629932227369 0.0970139129093377 0.467609951240509 0.18746
0.18748 1.51389948167441 1.01925259079331 3.00678433336177 0.070018629998607 0.478510004653986 0.18747
0.18749 1.06736282225501 0.838977301108661 2.95426904986758 0.0459440728837603 0.421297081611376 0.18748
0.1875 0.975287885174556 1.01611700522967 2.75046944361808 0.0588973223683416 0.421600178794358 0.18749
0.18751 1.42849023905671 1.43841038877595 2.62416556624603 0.0826032483046227 0.431332737168442 0.1875
0.18752 1.72482174010318 1.40106890681546 2.64023818656153 0.0983444534311352 0.413476184995972 0.18751
0.18753 1.6547632064269 1.18768865707165 2.66088552670338 0.0730264004955066 0.448403427260396 0.18752
0.18754 1.24605373407729 1.03425148812245 2.59205443012727 0.0625578031914745 0.407651558266521 0.18753
0.18755 1.540942189784 0.889198135339361 2.66047277010385 0.0745548264310195 0.42295681267597 0.18754
0.18756 1.66411764255333 1.0446219147425 2.66126001792857 0.0791019313601056 0.434092169673508 0.18755
0.18757 1.87277129156078 0.560742490605089 2.7152743558488 0.0705726522117789 0.401371716907756 0.18756
0.18758 1.93401937209452 0.927032277216433 2.5420345856338 0.0776036339222048 0.422305997598583 0.18757
0.18759 1.83512013335747 1.16418072581677 2.60708799236334 0.0845922225006401 0.422921022914514 0.18758
0.1876 1.41767293563268 0.784763706504108 2.6189913403061 0.0664918352508264 0.408204272699336 0.18759
0.18761 1.59404488282482 0.615339502185682 2.6384769956414 0.0609342043603717 0.448595582892365 0.1876
0.18762 1.50350781529523 1.00020934116017 2.96308931835937 0.0698188833484358 0.441068851813434 0.18761
0.18763 1.95899359974052 0.849188849193048 2.5575962975631 0.0759479344250931 0.423269577657971 0.18762
0.18764 1.99292258174783 0.959301229939379 2.53013216465333 0.0888021833620595 0.42450221197727 0.18763
0.18765 1.75796572980926 0.743540576395783 2.47581617143952 0.0748470933467863 0.411449480198551 0.18764
0.18766 1.69328772927718 0.73358150986934 2.64052759214788 0.0685417554525301 0.4395790940058 0.18765
0.18767 1.64464178697326 0.826265227129543 2.7907174667062 0.0740415940545346 0.432042059436291 0.18766
0.18768 1.41701699569085 1.10206192811263 2.83697928297376 0.0732037364232332 0.436548931992786 0.18767
0.18769 1.29987301314655 1.30174222274728 2.91466650868534 0.0738423377053844 0.436481949936359 0.18768
0.1877 1.20524188913099 1.17831492944526 2.74724987149882 0.0668872426425675 0.418142314897851 0.18769
0.18771 1.39106377463108 1.4210629282723 2.75650292583599 0.0819630777429795 0.452334480432169 0.1877
0.18772 1.27134652733006 1.14500222579433 3.01789773159018 0.0613717889635883 0.466252691118644 0.18771
0.18773 1.22708781823518 0.999997055704247 2.93836181043616 0.062433700986016 0.461883404188794 0.18772
0.18774 1.36788975788598 1.00561689849177 2.86617544105374 0.0649307012841189 0.451886891086267 0.18773
0.18775 1.24656412850682 1.03702205810999 2.74642569997034 0.0559703183016638 0.433093457307958 0.18774
0.18776 1.1600184305521 1.07887397824975 2.70512297904136 0.0678734717367762 0.407293683601024 0.18775
0.18777 1.19912813390629 1.00144259210188 2.47087801634201 0.0585468452308387 0.397566396583713 0.18776
0.18778 1.61622725744916 1.22093586922458 2.53499939863903 0.0802369496020718 0.404287267126522 0.18777
0.18779 1.60798432943911 1.21270321840878 2.49048592874613 0.076621571014022 0.40368799406799 0.18778
0.1878 1.33587179371047 1.00685755549037 2.48808770370988 0.0693469476377494 0.371681315663895 0.18779
0.18781 1.34353127262818 0.793917703057464 2.42757786263061 0.0630361912739474 0.364650997974537 0.1878
0.18782 1.35961115246881 0.918292249166508 2.68103703425437 0.0664968276589082 0.396980806575205 0.18781
0.18783 1.74774543026029 0.71786431574244 2.69375505550313 0.0685183030193149 0.447745519796365 0.18782
0.18784 1.81020134121206 0.946056324908052 2.49405073012171 0.0783060586132231 0.428649903222387 0.18783
0.18785 1.85128119905164 0.874595661517932 2.71927829123591 0.0784477343521771 0.438169048630559 0.18784
0.18786 1.57004144903532 0.920982660341684 2.74681789073847 0.0732570638268095 0.420928818654933 0.18785
0.18787 1.63056162031117 0.90616424520482 2.88247485022214 0.0630254434056003 0.461644677481621 0.18786
0.18788 1.63138942751227 1.1987320903517 2.88929771238313 0.082518341185623 0.444322900704761 0.18787
0.18789 1.74298645020615 1.28945497994943 2.88256379486442 0.0842394650909124 0.430523264004123 0.18788
0.1879 1.74557883970936 0.910176979440099 3.03980172460999 0.077647153724673 0.479729749652068 0.18789
0.18791 1.52573326402129 0.937935027411051 2.80910608150716 0.0623036823486716 0.433210306837956 0.1879
0.18792 1.70060244619076 1.20537748024258 2.87749664914497 0.0822241342396334 0.470222753825605 0.18791
0.18793 1.55629865313515 1.41594499082505 2.86632336988262 0.0811664537764322 0.470257193883167 0.18792
0.18794 1.39271355485594 1.55315292681706 2.83613244437531 0.0840578260565712 0.443719535601028 0.18793
0.18795 1.31014478275216 1.50501305991698 2.88088975631716 0.0798382337120149 0.467763501102329 0.18794
0.18796 1.35985985756601 1.37504967869013 2.57087194004317 0.0767158913057154 0.413854993505236 0.18795
0.18797 1.22147129342043 1.52372202975973 2.75111705815856 0.0779778930358756 0.428149914827381 0.18796
0.18798 1.52429503795902 1.43704338204293 2.67324483392263 0.0837447137312987 0.444545194830587 0.18797
0.18799 1.93029992744531 1.36390631650811 2.56260647451475 0.104871192919637 0.41408453534341 0.18798
0.188 1.83543709030697 1.12490153873422 2.67764211547538 0.0796363487601734 0.437698163469988 0.18799
0.18801 1.7021933580322 1.29194329765546 2.76919408916214 0.0834182188321022 0.439805301832701 0.188
0.18802 1.46519136411568 1.27867585367774 2.7124102680077 0.083027711569135 0.396864832291305 0.18801
0.18803 1.49192800912384 1.45170875023359 2.95390535425037 0.0852555355787545 0.46285433877594 0.18802
0.18804 1.5762908746616 1.75245025969461 2.95288663993934 0.0973792282047139 0.482055088662549 0.18803
0.18805 2.05597720210123 1.78278144427584 3.17157135980504 0.112277995697247 0.495289670115055 0.18804
0.18806 1.80544843638629 1.17285167836565 2.99750074008811 0.08341133489688 0.493953443304515 0.18805
0.18807 1.89877749919687 1.0124387193527 2.8127431385614 0.079457209305729 0.457286923163563 0.18806
0.18808 1.37807889095428 1.15144961998004 2.72576808062709 0.0648181401439033 0.451814218125928 0.18807
0.18809 1.70780712569106 1.21809660475443 2.91223811091348 0.0854415828890031 0.470502616032409 0.18808
0.1881 1.68846866076078 1.11730551517236 2.65859532005359 0.0761006922781569 0.39873613564654 0.18809
0.18811 1.4177749925758 1.27086634213881 2.74572900089159 0.0750276876825533 0.447172423230831 0.1881
0.18812 1.77489901220798 1.43688053017589 2.77918921464053 0.0876505372481832 0.450120318203994 0.18811
0.18813 1.57553414544035 1.48227431156538 2.90116316013052 0.0901476681330389 0.455028785191957 0.18812
0.18814 1.67251918780606 1.36989790769651 2.86067644581038 0.0817208063904574 0.468633662895706 0.18813
0.18815 1.85103733089655 1.25420400232224 2.83288461004653 0.0871220172130283 0.452578645790648 0.18814
0.18816 1.74437756153554 0.96099330341418 2.64639399997153 0.0708036418479205 0.419854786601445 0.18815
0.18817 1.50323201989747 0.889488852940895 2.66446997167333 0.0658678001629984 0.43675241591707 0.18816
0.18818 1.40999905862944 0.701602866432342 2.72262843603119 0.0622690658430197 0.414296974985787 0.18817
0.18819 1.4818413633501 1.10442506464536 2.77278082037457 0.0743362066224624 0.419195326598077 0.18818
0.1882 1.53817083413351 1.03426228079563 2.78365969040988 0.0716038338703404 0.432058415598628 0.18819
0.18821 1.72227703361334 1.08269894118114 2.74057726058856 0.0825483008206774 0.425655872080395 0.1882
0.18822 1.68489657165749 1.27624943340919 2.7641515813758 0.0891275690480671 0.432268319220619 0.18821
0.18823 1.30024240443869 1.46704643346175 2.71037351947334 0.0741990940895931 0.415800389660898 0.18822
0.18824 1.45780187197501 1.10057704833782 2.66927312874875 0.0715586641811504 0.433483347655863 0.18823
0.18825 1.71453880305033 1.2760666161646 2.61298533944143 0.0833624437975224 0.424129935153133 0.18824
0.18826 1.61977361474268 1.06647886153634 2.50082220484223 0.0802089041397292 0.394617293809259 0.18825
0.18827 1.49768481376778 0.932234026978836 2.62220051054278 0.0676412508070122 0.427590340857033 0.18826
0.18828 1.2687470428566 1.01923463797194 2.77955168609553 0.0724392338761292 0.434998182366224 0.18827
0.18829 1.64082732696267 1.11687334109736 2.80037373109467 0.0819328797676917 0.437679315710102 0.18828
0.1883 1.65962734537177 1.12714229318079 3.02567598890115 0.0765243587574992 0.48012810605323 0.18829
0.18831 1.48507866628395 1.45874196462426 2.81963336076719 0.0817486564509382 0.475065246931441 0.1883
0.18832 1.24819735034123 1.36491005544523 2.9098987873715 0.0758299066256687 0.451876387639198 0.18831
0.18833 1.57907394488429 1.19725396207627 2.79639261145763 0.0701597905904981 0.463435215246604 0.18832
0.18834 1.92105773370186 1.27574459079069 2.76283872956479 0.0976326118507184 0.433798355453871 0.18833
0.18835 1.79825955541293 0.997693777236002 2.65682329251478 0.0744350178380096 0.41556626396518 0.18834
0.18836 1.73075866877944 1.22695933534296 2.44503476163665 0.0868610046909082 0.386684357829743 0.18835
0.18837 1.70578440493608 1.23939044853368 2.70417386868247 0.0882802555330087 0.434114271162634 0.18836
0.18838 1.64210813575032 0.937884064194289 2.75246662602529 0.074588959831464 0.43609073644061 0.18837
0.18839 1.50007416352608 1.12694981132128 2.79734530877371 0.0689302282834423 0.438476068370642 0.18838
0.1884 1.35714442351389 1.11336381776121 2.84562725183014 0.0690662914646761 0.430013422327352 0.18839
0.18841 1.36326299704124 1.00783801389109 2.74110633416694 0.074353899311596 0.423321030504944 0.1884
0.18842 1.66161450057288 1.07299008654887 2.65757024568967 0.0770027261677569 0.422063387499284 0.18841
0.18843 1.75976754239466 0.836793310339946 2.51723955041037 0.0641624460666572 0.4238449965689 0.18842
0.18844 1.73746031245045 1.42764142222094 2.49730809609551 0.102442266536056 0.38511890344698 0.18843
0.18845 1.60418657051661 1.16796450101945 2.71227702776403 0.0762658616844837 0.436481963927546 0.18844
0.18846 1.32451861472887 0.658822498858192 2.76059448857815 0.0487206961342834 0.430328732038287 0.18845
0.18847 1.19087353463881 0.907775073938857 2.82798846184936 0.0675687767402828 0.425175820343308 0.18846
0.18848 1.42527976298443 0.974013961685916 2.62051953366943 0.0690411311760828 0.392357337277718 0.18847
0.18849 1.28214983236388 1.14418963542399 2.65302679256065 0.0667303295530835 0.421979992229833 0.18848
0.1885 1.76267963334965 0.995756279705749 3.01896372878713 0.0755878205336537 0.48315532432121 0.18849
0.18851 1.52670632071308 0.754953739107249 2.94859356594975 0.0698305203547282 0.44650568452736 0.1885
0.18852 1.27751686848383 0.721439125821157 2.93608707744938 0.0556960007226469 0.464215436934703 0.18851
0.18853 1.26204930307906 0.775845202610785 2.841137788426 0.0578389537691366 0.448642147710864 0.18852
0.18854 1.45044449343106 0.808764314721723 2.46788965456396 0.059156205695447 0.39734264416885 0.18853
0.18855 1.56305306251413 0.761337726874814 2.49005174879229 0.0636645054109016 0.403061732396403 0.18854
0.18856 1.29926052440121 0.915252951314702 2.70263735293006 0.0603864725233625 0.409762869911629 0.18855
0.18857 1.28367644331293 1.29444269645138 2.63734683604944 0.0724185703078133 0.395055628345989 0.18856
0.18858 1.30705890347697 1.38294563253121 2.79953146616603 0.0822398743278485 0.434588428828259 0.18857
0.18859 1.55112289672925 1.14495434358451 2.65284177816519 0.0764009247638839 0.415345643674285 0.18858
0.1886 1.4540615609248 1.30027199657486 2.50500682473761 0.0809140226042648 0.399732055028062 0.18859
0.18861 1.75132258513868 1.05004053750116 2.73884813712187 0.0760024306172469 0.428977670999019 0.1886
0.18862 1.57985300934162 1.06074630814058 2.56555050046459 0.0700925452926097 0.409932183183079 0.18861
0.18863 1.67358632980072 0.949515058170748 2.84347069441573 0.0801973290234185 0.459471390239036 0.18862
0.18864 1.51457744132209 1.01792247976681 3.05760300156884 0.0681538452275146 0.490269741433281 0.18863
0.18865 1.30045689941453 1.14675767307621 2.9134771296412 0.0632507659876347 0.450742299613307 0.18864
0.18866 1.46882720723702 1.26896482676133 2.7224325716592 0.0820807319430053 0.446897874200742 0.18865
0.18867 1.74480082347774 1.36584556687188 2.53643986207841 0.0877678297112741 0.416638660768552 0.18866
0.18868 1.9185845538741 1.29585608520472 2.74813297584813 0.0880173841049753 0.445096684143044 0.18867
0.18869 2.01491739480882 1.37662247674828 2.7559813068146 0.0947397861497078 0.435438091680608 0.18868
0.1887 1.99573382313662 1.25706821072168 2.56334107965664 0.0891885743925962 0.450382608336901 0.18869
0.18871 2.03052117965112 1.13683962675246 2.7193711173356 0.089472218365553 0.4291945072254 0.1887
0.18872 1.52881332568096 1.40649292936868 2.63147169504887 0.0884609552281924 0.419280870155797 0.18871
0.18873 1.52089392025793 1.24317752421022 2.72436563561151 0.0724145129676251 0.427602281050165 0.18872
0.18874 1.55246854099047 1.27575703019348 3.06666545496803 0.0714333720874881 0.498880539535376 0.18873
0.18875 1.66565795433588 1.15549100061263 3.18594219945143 0.0764066378174278 0.494951953390652 0.18874
0.18876 1.72048885531909 1.49137370374194 3.00977222330497 0.092492999271979 0.469158122596922 0.18875
0.18877 1.6152471653175 1.31770589513277 3.02732468325723 0.0837537860232319 0.470301884790848 0.18876
0.18878 1.8613640184485 1.35610914009955 2.7183462396405 0.0857786558015418 0.436892037566271 0.18877
0.18879 1.71481521610929 1.15897737166755 2.65088050136449 0.0872136149024014 0.447573912280573 0.18878
0.1888 1.53287233839945 1.33808657317223 2.88107343409796 0.0752092885940642 0.433313489630381 0.18879
0.18881 1.7507705021395 1.09384409728 2.88671476731214 0.0816750117067401 0.447039632716484 0.1888
0.18882 1.7372478994364 1.00877434580179 2.85746913076166 0.0783684813949871 0.446955430821066 0.18881
0.18883 1.71779406022388 1.52729483810565 2.67001333183373 0.0953375798256458 0.420306868224989 0.18882
0.18884 1.55847986608462 1.46931336665515 2.78239575216953 0.0888067892703026 0.455611976559552 0.18883
0.18885 1.44088571891302 1.14995909584794 2.91855832092254 0.0666583324696296 0.441516689560025 0.18884
0.18886 1.25237842774213 1.07806391101736 2.80658741526507 0.0681117637113902 0.452255145620338 0.18885
0.18887 1.51952743849269 1.7457559396498 2.77635983515798 0.0946244119433102 0.450695321436316 0.18886
0.18888 1.7718596460331 1.58434522206855 2.77491798362716 0.090289905351341 0.454017084681266 0.18887
0.18889 1.57916700041343 1.43022053569803 2.80421394340163 0.0920358403020541 0.437224011803919 0.18888
0.1889 1.34499940982327 0.89644623717841 2.64924146432947 0.0586125242079611 0.408683910513288 0.18889
0.18891 1.32434553279335 1.20503286406489 2.78625741268448 0.0712364530093508 0.419619941961271 0.1889
0.18892 1.62353238454227 1.5005607207681 2.93196470621116 0.0923354920999264 0.467970161074829 0.18891
0.18893 1.85984931347448 1.44625172293096 3.08718872189183 0.0923008746164021 0.480997457825018 0.18892
0.18894 1.78058511878238 1.37394170700662 3.28652458565509 0.0832787481604859 0.511767633993427 0.18893
0.18895 1.61354502664905 1.11074025339624 2.93685125043157 0.0661333934119419 0.472689721807106 0.18894
0.18896 1.31298846598637 0.898219747324875 2.74483094780084 0.0590684002856431 0.406910301029144 0.18895
0.18897 1.73198704980309 1.0597665488096 2.56541974039841 0.0767243508046059 0.407432230234645 0.18896
0.18898 1.82223299504474 1.11795446752999 2.7825795264695 0.0821621793251245 0.450082589145519 0.18897
0.18899 1.73130576093521 1.56509052404489 2.78957044074291 0.0946947633476184 0.440943133094566 0.18898
0.189 1.60208048968863 1.30076220140851 2.70311599845213 0.0823797577063289 0.42142953868549 0.18899
0.18901 1.61868659505295 1.34349790915057 2.55652332868945 0.0864856421747646 0.437434629590185 0.189
0.18902 1.48832984304558 1.3639750496755 2.41456955693129 0.0844518855898545 0.373667622889757 0.18901
0.18903 1.76887917348585 1.45922592491236 2.5354418151588 0.0980217480987945 0.429260367976279 0.18902
0.18904 1.47659275016779 1.25638345961251 2.81385142546287 0.0747005313312017 0.433683590785084 0.18903
0.18905 1.44578101346269 1.31471361238581 2.87710376710857 0.0851125033661719 0.440832988938904 0.18904
0.18906 1.08764275317203 1.31940724527341 3.18530759250894 0.0655101325511101 0.480493170998263 0.18905
0.18907 1.37521799332242 1.34645139154965 3.04073519333585 0.0682021039268872 0.488751369373397 0.18906
0.18908 1.40451894929547 1.17184091899725 2.91957798351162 0.0779266332694443 0.450892552177694 0.18907
0.18909 1.31703865948249 1.27046630884937 2.80330763464156 0.07534667211686 0.423890944065672 0.18908
0.1891 1.47896777246137 1.08569802848188 3.02413629791836 0.0646046371902512 0.47468113976447 0.18909
0.18911 0.983699219285773 0.996770491577122 2.86728980603038 0.0580009627434311 0.418403031973607 0.1891
0.18912 1.55760244998183 0.983156686392867 2.91668230713284 0.0685623899485965 0.453481591819634 0.18911
0.18913 1.34903013465402 1.04722171362543 2.72622440433409 0.0615823839321471 0.396269680335728 0.18912
0.18914 1.47165480760067 1.32789992342927 2.41307949020772 0.0800584383058818 0.417843918042477 0.18913
0.18915 1.74071254455774 1.33047471578144 2.627869490317 0.0928958445209579 0.403046196463198 0.18914
0.18916 1.87794516189931 1.37336807979849 2.48801512380001 0.0859945035911579 0.404806595245973 0.18915
0.18917 1.75491576896732 1.07985272800467 2.51450105881751 0.0813256374276566 0.398706350180861 0.18916
0.18918 1.65187334347223 0.675753976833682 2.46236334335009 0.0702005568981642 0.384759989166813 0.18917
0.18919 1.42109957195448 0.549675022880567 2.66297492041188 0.0506624445128175 0.425567695480633 0.18918
0.1892 1.48010668805772 0.865462630025699 2.72759898729857 0.0654118534630269 0.42218885569802 0.18919
0.18921 1.60673574884531 0.93094840136458 2.72213753685859 0.0711127632046063 0.428482609267427 0.1892
0.18922 1.37237758784589 0.91307970991952 2.97094043282946 0.0641782645610218 0.464957910041842 0.18921
0.18923 1.45463539386431 0.732298863489144 2.95572228319374 0.0593242602074097 0.452661426239348 0.18922
0.18924 1.31158675221002 0.95397674903872 2.92393518136268 0.0639838715914657 0.465098867979816 0.18923
0.18925 1.41201656223776 1.1506193763463 2.95126195432949 0.0681796457394228 0.466658886070446 0.18924
0.18926 1.71658080345962 1.03234415673381 2.75629551879812 0.0747573288645623 0.446346902403868 0.18925
0.18927 1.63489088558108 1.10857766878709 2.9400240633565 0.0801404521015913 0.445168393023097 0.18926
0.18928 1.31434340340656 0.950590370970945 2.75653999370309 0.0595597036403465 0.420732954486046 0.18927
0.18929 1.39962635252351 1.34967036417149 2.75237247208014 0.0811831098134058 0.420272431255287 0.18928
0.1893 1.36533894463293 1.36861162484731 2.62176810799127 0.0761655168411809 0.412054259953789 0.18929
0.18931 1.29611040089201 1.02812599659806 2.59976282048804 0.0669135339360585 0.397058004322028 0.1893
0.18932 1.52759285701881 1.0393543008816 2.69810720899618 0.0710979965625239 0.421368613560506 0.18931
0.18933 1.62111312590424 1.16507316825967 2.65840129189401 0.0766444555665042 0.460561922417994 0.18932
0.18934 1.78949241153392 1.05515522075999 2.72069517501472 0.0760149747769789 0.426167955058472 0.18933
0.18935 1.62180021999645 0.989033998776609 2.71112426068782 0.0788280196719089 0.428906754234926 0.18934
0.18936 1.58305300407682 0.929104728860498 2.68670795484946 0.0686935112848292 0.424179311474232 0.18935
0.18937 1.58936381866636 0.831717335937912 2.5813453807955 0.0647262832371594 0.412910469848332 0.18936
0.18938 1.79751255576283 1.06510111193373 3.0214680421988 0.0813368281672578 0.475522616149024 0.18937
0.18939 1.98570738542299 0.880933359987664 3.04931188522565 0.0846189303920557 0.46154139450485 0.18938
0.1894 1.65246978642048 1.12718123811486 2.89979411269583 0.0800947274426696 0.45487473741871 0.18939
0.18941 1.65424812833988 1.2322786988955 2.68907172685904 0.0759145539082472 0.442535558842123 0.1894
0.18942 2.00424525938206 1.64140729234363 2.68522016982466 0.0973180207771864 0.455002679356108 0.18941
0.18943 1.58407611961303 1.5438485612395 2.71707825821534 0.0875847359685809 0.452484068503508 0.18942
0.18944 1.60779497701488 0.995519986623778 2.87636813384113 0.0745267574492546 0.452818006985012 0.18943
0.18945 1.65436000228216 1.1973414607452 2.89206383420086 0.0848968847246422 0.453653346420043 0.18944
0.18946 1.71599932538372 1.19440434837866 2.95139441198504 0.0771568348957 0.446209760007498 0.18945
0.18947 1.55004744676728 1.25978643347318 2.85573060772484 0.0731646704341144 0.463621504615455 0.18946
0.18948 1.51798488138527 1.08253571050754 2.75234783881275 0.0776458106256366 0.42474474445953 0.18947
0.18949 1.62218515861584 1.2004296463142 2.82101336544201 0.088504398611003 0.418253098369543 0.18948
0.1895 1.63140414173741 1.29927692073352 2.80469836894976 0.0815027738696808 0.458579958576029 0.18949
0.18951 1.46109544691949 1.37305716894134 2.89898171244561 0.0773212651312895 0.458474770981938 0.1895
0.18952 1.6416835097485 1.20352732365405 2.94259712038263 0.0809827940894459 0.478870503063145 0.18951
0.18953 1.46103665939072 0.907179057152459 2.90432202386492 0.0646697839113719 0.445857956855396 0.18952
0.18954 1.62588818199189 1.17473087469679 2.89616044758184 0.0763622775030019 0.44721040008971 0.18953
0.18955 1.63975113231273 1.23356605739655 2.94056250434756 0.0860617952434979 0.453166545751373 0.18954
0.18956 1.55721735665371 1.34557941592807 2.78141115214574 0.0810606532528729 0.443988338711783 0.18955
0.18957 1.401983147757 1.2208087177561 2.68797750087755 0.0700127622959929 0.408266678511038 0.18956
0.18958 1.3835188227118 1.18566676074033 2.72481679085781 0.073573263747307 0.430454448408385 0.18957
0.18959 1.43759714070926 1.17267678442552 2.8579531173876 0.0692014653917572 0.449328863254221 0.18958
0.1896 1.74260791999786 1.39304616940195 2.70098934426333 0.0879132620479711 0.420431014943617 0.18959
0.18961 2.11660088775868 1.62523844947929 2.76695771372242 0.106411761845717 0.449792975342575 0.1896
0.18962 1.97205904472517 1.7125691133502 2.8113141776848 0.0976744801998409 0.475804701955265 0.18961
0.18963 1.45652203647243 1.28766066088234 3.17969762450622 0.0758739718126767 0.474282543112332 0.18962
0.18964 1.57587859073921 1.39577189243557 2.79719901185255 0.0806692717532341 0.448914498713596 0.18963
0.18965 1.47904265229345 1.10314453965313 2.95574181304159 0.0681183500256742 0.460477123780613 0.18964
0.18966 1.86568698102967 1.01982750527166 3.02894701325172 0.0794784060427168 0.492183666856926 0.18965
0.18967 1.7865541496197 0.88786058555956 3.09296747727024 0.0769592209216826 0.502921704700378 0.18966
0.18968 2.11874234071469 1.65434109791912 2.83239866642092 0.100934073676744 0.461550682915529 0.18967
0.18969 2.16927105033192 1.44930251626731 2.8106246627066 0.0992707249780628 0.49325053400563 0.18968
0.1897 1.94171791961858 1.46097512742766 2.99002679106481 0.096929490518168 0.473495111616227 0.18969
0.18971 1.83788694093045 1.54645975475699 2.78726052714692 0.0998403884069563 0.453897165282396 0.1897
0.18972 1.45565081960092 1.44952437669691 2.66232620467733 0.0819846251485914 0.426213002914061 0.18971
0.18973 1.44964497484447 1.57754743501455 2.52279533144161 0.091048700195162 0.40202666002233 0.18972
0.18974 1.70739415647726 1.56760651147197 2.47168684383533 0.0937377344787426 0.42588031523091 0.18973
0.18975 1.79722567389877 1.26996632502025 2.59513997071514 0.0861377273960923 0.422123864210083 0.18974
0.18976 1.7178995371586 1.11140874639591 2.75388924719172 0.0786994888714796 0.440832374357616 0.18975
0.18977 1.56037155466641 0.930179502438645 2.60156403896677 0.067455129839765 0.386944004785847 0.18976
0.18978 1.92287800806842 1.18475895164049 2.79152783360747 0.0909258215485717 0.498619273497445 0.18977
0.18979 1.66788484889381 1.31624521748196 2.99197223731308 0.088629172737243 0.46134026854203 0.18978
0.1898 1.58398202593912 0.909770121060298 2.93548144573826 0.0759458109880322 0.473562844640444 0.18979
0.18981 1.46558087144041 0.964029685191243 2.75859449496754 0.0703815378173303 0.443404149255682 0.1898
0.18982 1.32149767754559 1.04294652036913 2.84088528678176 0.0674036315853991 0.429046136413125 0.18981
0.18983 1.45260458301571 1.06412333801559 2.71679386056921 0.0671396264456154 0.43925500559259 0.18982
0.18984 1.81090902865515 1.66357059616013 2.76393084419815 0.0963332489084616 0.448280759198099 0.18983
0.18985 1.53394472899658 1.16793963175867 2.84848951404797 0.0717072716504055 0.445277413704257 0.18984
0.18986 1.61490694790339 0.861288681728746 2.89026636790961 0.0690166381830732 0.480207023433611 0.18985
0.18987 1.74283782019695 1.17411914187074 3.03201635082091 0.0788821470398397 0.44959436647311 0.18986
0.18988 1.42297279427543 0.976528914373041 2.95356471448215 0.0740416518812206 0.45847925529135 0.18987
0.18989 1.77673929934962 0.86302613451875 2.78535508389993 0.0762784810204995 0.458951883486347 0.18988
0.1899 1.71206130070316 1.32058224831487 2.83723035066391 0.0862198502742198 0.463707984423178 0.18989
0.18991 1.66498332016725 1.0231410738668 2.69386390867193 0.0781585577925241 0.429843485740014 0.1899
0.18992 1.96405830084204 1.40696768289769 2.67214344249443 0.0958570419601213 0.44135557160547 0.18991
0.18993 1.80461229438486 1.03379991810584 2.61872528527201 0.0788407963788179 0.409718074094511 0.18992
0.18994 1.25409751288674 0.93190261755969 2.38850716077031 0.0576624163060694 0.382391956712779 0.18993
0.18995 1.3161692501625 0.8794187457445 2.66297852761834 0.0598667338795532 0.435589590037841 0.18994
0.18996 1.52970417749097 1.0461184306378 2.85431369758402 0.0729866043533484 0.418964071090954 0.18995
0.18997 1.76482494307995 1.45508531760135 2.77908971606563 0.0975518532611704 0.443095207395248 0.18996
0.18998 1.83462103253222 1.35278433762342 2.92507922962723 0.0879706396947527 0.48168426350529 0.18997
0.18999 1.47059803766638 1.09009053085159 2.79892907112111 0.0721447612077402 0.438870604962524 0.18998
0.19 1.596066060164 1.04652098709323 2.63612586891339 0.0763374582583238 0.421021623262202 0.18999
0.19001 1.6077794791588 0.993253639443674 2.72031422958799 0.0738810588723286 0.43356283676353 0.19
0.19002 1.65740022759297 0.886434734618674 2.65823588722189 0.0750066937162321 0.433863359884851 0.19001
0.19003 1.82646806783297 1.06281403275207 3.00073349214746 0.0874787018432484 0.477211800127416 0.19002
0.19004 1.61804926618975 1.05601044866402 3.05590165382882 0.0704101211537277 0.483110231862806 0.19003
0.19005 1.61249693494276 1.23881620668624 2.74697750555066 0.091896644566911 0.441351360554984 0.19004
0.19006 1.69526973599369 1.11432578607973 2.78435027393259 0.081827597915364 0.424652801861353 0.19005
0.19007 1.63958336645892 1.31735481270644 2.74273441858463 0.0791032518360864 0.452874982194073 0.19006
0.19008 1.91683758356987 1.42926850923891 2.85205953519611 0.0954219650865214 0.447172095347011 0.19007
0.19009 1.80189955979068 1.1444764029008 2.68477543396817 0.0814611955466428 0.438522337792461 0.19008
0.1901 1.50558273287618 0.772043240771896 2.94940459033998 0.0603993151097631 0.451102250600992 0.19009
0.19011 1.54815538926915 0.823446701629123 2.80904188157529 0.0675772947774382 0.438957318912434 0.1901
0.19012 1.88901000833515 1.05289036516292 2.74128321859688 0.0944182971094131 0.431648013143667 0.19011
0.19013 2.22950180174755 1.22711916155338 2.69978595690693 0.0986337239564116 0.438387091828118 0.19012
0.19014 1.79875495137994 1.25241324538775 2.73691195984076 0.0777201716415517 0.441600619273641 0.19013
0.19015 1.34947150747052 1.56083757777022 2.78493748943552 0.0834511810553501 0.441138893714517 0.19014
0.19016 1.47199908530501 1.14194337017232 2.54465007760974 0.0718266729179686 0.401949420750674 0.19015
0.19017 1.4142708251605 0.914202135072196 2.6122546971522 0.0596182604670157 0.45079834999154 0.19016
0.19018 1.79474563280116 1.48041674150208 2.74435759593402 0.0963176086224057 0.456433321205406 0.19017
0.19019 1.85681150015581 1.08053943699565 2.70661108336683 0.087622581173623 0.422311385860224 0.19018
0.1902 1.59307509201682 0.857671722819879 2.76925651837742 0.0645019343366439 0.430955718287002 0.19019
0.19021 1.63707257531178 0.855903306556412 2.69521968132012 0.072783211213915 0.430595549486615 0.1902
0.19022 1.48841757139467 1.10046921073018 3.00253629555368 0.0740674001288936 0.461019672676651 0.19021
0.19023 1.5354360850805 1.20060538946827 3.02010752231688 0.0726329746854945 0.466208582487344 0.19022
0.19024 1.43602635661634 1.01382860681938 2.83620772880028 0.0660010652458074 0.44362090394267 0.19023
0.19025 1.61181339561185 1.37752439427538 2.91910886183204 0.0815346844069777 0.478668363180002 0.19024
0.19026 1.55953325619671 1.36660523580488 2.6975651067792 0.0732682151229753 0.430867462693088 0.19025
0.19027 1.67428825960891 1.43228928215963 2.77713624366604 0.0858892381665786 0.461627362527441 0.19026
0.19028 1.74248036045546 0.975682364585624 3.01872561298487 0.0646771176037815 0.487050017466643 0.19027
0.19029 1.59538026327092 0.877380948985139 2.97191711026742 0.0704407961088535 0.457168839336033 0.19028
0.1903 1.57845666398455 0.859526413779124 2.83487996923373 0.067904450271327 0.436394586500927 0.19029
0.19031 1.67839515381654 1.12163346046759 2.74063292674692 0.0727382892182183 0.437787057254843 0.1903
0.19032 1.76541528825109 1.23358283618458 2.68099453991805 0.094607616507996 0.433312900016581 0.19031
0.19033 1.74752881724248 1.3837158911294 2.90362071987696 0.0902407508165514 0.432311107649441 0.19032
0.19034 1.46719772401121 1.61898908662818 2.67627948552064 0.0848698603288845 0.432159646629318 0.19033
0.19035 1.67326417921195 1.81486194712991 2.69088235085734 0.102463379892831 0.439215582434574 0.19034
0.19036 1.9614129922814 1.89212121895664 2.51379562761577 0.11398363394893 0.441350645962976 0.19035
0.19037 1.46999779578698 1.5641213285502 2.66275973490853 0.0787096170053336 0.445450646968631 0.19036
0.19038 1.47292809906793 0.974141145954911 2.78943890249262 0.0690961225037964 0.455975461022574 0.19037
0.19039 1.55032894385778 1.17664020939839 2.85937298889712 0.0704274048889028 0.45324830991206 0.19038
0.1904 1.38710529186669 1.64357894448039 2.96930343092172 0.0880925468660097 0.461472451604279 0.19039
0.19041 1.5720381721202 1.35312010781286 3.07056344132944 0.0829792534948333 0.481876043247493 0.1904
0.19042 1.82989698226992 1.4555063223174 3.00633930069334 0.0898033966588814 0.506225834134534 0.19041
0.19043 1.93757052017409 1.799897959379 3.07979335173877 0.101517638336466 0.525922394921436 0.19042
0.19044 1.84980839303597 1.31346167342686 3.11421720996697 0.0874716084948751 0.485229450889412 0.19043
0.19045 1.80175336280208 1.59839249354621 3.20113706629217 0.101353756883789 0.486785349590006 0.19044
0.19046 1.83017277619169 1.21537568913637 2.8722224551783 0.0788911866996555 0.466365559139415 0.19045
0.19047 1.68185578799412 1.47188855372335 2.78166335374214 0.0931857583573151 0.445244116454879 0.19046
0.19048 1.65856085217615 1.67339554162472 2.61397640441946 0.0911167906715489 0.453317692610432 0.19047
0.19049 1.81991661887523 1.40253949604453 2.64165880154773 0.0956682916671314 0.445717406232294 0.19048
0.1905 1.49110099072997 1.17055463998649 2.79656414865741 0.0727080644740709 0.439139745890221 0.19049
0.19051 1.70119985327028 0.76008712163585 2.7421258810124 0.0610760938609703 0.429669609743526 0.1905
0.19052 1.7462616974141 1.2811190652525 2.80436444716213 0.0903136885874367 0.441157914024536 0.19051
0.19053 1.71447299710631 1.17261224897214 2.68886470805377 0.0803360083019968 0.408007170303599 0.19052
0.19054 1.62323137199198 0.852001864780667 2.60973575776262 0.0618976532014296 0.438652033303175 0.19053
0.19055 1.54509858891057 1.23757542379337 2.79438687864507 0.0798812945000788 0.441859191373817 0.19054
0.19056 1.62916966369281 1.46007504252692 2.67022512715237 0.0893104138906824 0.432434098769112 0.19055
0.19057 1.69499124076094 1.13632875435923 2.84591408956069 0.0819394219466427 0.467326071221615 0.19056
0.19058 1.78896601156671 1.31077578868701 2.77214702769321 0.087414495909944 0.461176934957817 0.19057
0.19059 1.97105568566363 1.28824518287051 2.87734716641273 0.0904805138237229 0.486829174676736 0.19058
0.1906 1.93194558348195 0.904871442773823 3.07206727531345 0.0786130271182258 0.498880800780265 0.19059
0.19061 1.42951882064002 1.12881606651928 3.12624582509605 0.06654704203841 0.465968735298048 0.1906
0.19062 1.23840938242249 1.38544697746371 2.9218886014258 0.0698103421619703 0.457453088747561 0.19061
0.19063 1.43818896912772 1.24105409916887 2.94498410854605 0.0790486167533645 0.45162169020143 0.19062
0.19064 1.42099875964914 1.43366044478998 2.86236992470587 0.0749412427429081 0.480038379498579 0.19063
0.19065 1.75097011073236 1.29662539120244 2.68374504544016 0.0872668377738738 0.420933932955854 0.19064
0.19066 1.67761265500545 1.21768933084656 2.76162805026794 0.0744802081325269 0.451068804958053 0.19065
0.19067 1.56389645170761 1.18646296373714 2.86236343430829 0.0818886888966647 0.449174099724786 0.19066
0.19068 1.67349917744263 1.30514839076814 2.7516534006652 0.0777470120105273 0.447567925876718 0.19067
0.19069 1.63513547076942 1.33907770717458 2.68983985244378 0.0860994582639356 0.435684732737299 0.19068
0.1907 1.47789850740979 1.63633201681882 2.76538474868526 0.0836744578448737 0.449794618297463 0.19069
0.19071 1.60187938806555 1.22776177180504 2.89536174504306 0.076105151234259 0.450433023768629 0.1907
0.19072 1.69312066889563 1.3471195573758 2.90900159416599 0.0871637483295149 0.461208063890997 0.19071
0.19073 1.56137446606254 1.03018340327916 2.85762018292627 0.0675584004030239 0.464041125983849 0.19072
0.19074 1.83422371834145 0.996475341236049 3.1297530848942 0.0772070189060508 0.489076847091704 0.19073
0.19075 2.01511221859943 1.26373351286511 2.84356303395224 0.0905131455328515 0.443372054143735 0.19074
0.19076 1.67735771543139 1.31931979992893 2.71822408584326 0.0823268708211936 0.458660163203862 0.19075
0.19077 1.70820579476741 1.05495062003767 2.67455078337277 0.0807929718076954 0.412940552296561 0.19076
0.19078 1.70135112433112 1.28606316382994 2.6250208109179 0.0848832108488706 0.432486237811283 0.19077
0.19079 1.68457486677343 1.1918176556905 2.80797658392991 0.0828662900633681 0.466919504510765 0.19078
0.1908 1.45140984343158 1.11177254898123 2.68917345759245 0.072249001238929 0.414121421314346 0.19079
0.19081 1.9632724242663 1.12894252530392 2.64779327155628 0.084922332015137 0.441424277447156 0.1908
0.19082 1.54470962525777 1.12699544328701 2.80744781381936 0.0799372094468227 0.456436195667253 0.19081
0.19083 1.81890864004432 1.20062587602056 2.95451999869601 0.0785199913152679 0.464931256958749 0.19082
0.19084 1.33085963551414 1.06135714804154 2.85040786166242 0.0663995916722253 0.437976135672442 0.19083
0.19085 1.44255832175366 0.745815654704253 3.09291003327089 0.0573543882300226 0.470572710772005 0.19084
0.19086 1.73506206428121 1.12562889615821 2.82996111584303 0.0734136911086638 0.455931440857441 0.19085
0.19087 1.71021484378893 1.05001638246587 2.79218436896058 0.0825741334861949 0.442374819182452 0.19086
0.19088 1.68679322965777 0.991776687283768 2.64839826120132 0.0753016462046533 0.432069799309289 0.19087
0.19089 1.65375041926426 1.09662714139555 2.75351076095576 0.0850521911566239 0.39654485929801 0.19088
0.1909 1.37807494096406 1.18963252431353 2.71438556294999 0.0744858022960061 0.425298310232406 0.19089
0.19091 1.63244382707044 0.918000361567884 2.93934392399515 0.0762273371608141 0.435222364519911 0.1909
0.19092 1.40636465915296 0.882809563994513 2.68405459374504 0.0657738735097035 0.428509309938252 0.19091
0.19093 1.44518733421939 0.569652508818227 2.7152920960984 0.0502703146029016 0.401033648472375 0.19092
0.19094 1.57379096780044 0.679368139835934 2.51471329214677 0.0538559537603545 0.41195674492953 0.19093
0.19095 1.71350487934665 1.44012842988977 2.47974301103308 0.0889652772695516 0.412703438160871 0.19094
0.19096 1.74380797746645 1.05129493203902 2.73966177040747 0.0750953503354307 0.441879876256449 0.19095
0.19097 1.54302929052759 1.25656283201382 3.08196451728122 0.0810445356035567 0.485748929360067 0.19096
0.19098 1.59166515603699 1.21440354825277 3.20278943387868 0.0785989160113944 0.509805636389354 0.19097
0.19099 1.7281750493764 1.30642094773743 2.93914223947692 0.0882087254039209 0.453558307276118 0.19098
0.191 1.77497039176051 1.40943980812681 2.93899674077624 0.0944989204947379 0.47767950259135 0.19099
0.19101 1.75711573484442 1.23128170832262 2.75627726991717 0.077621332300332 0.465817509707265 0.191
0.19102 1.57918748928376 1.50268935195842 2.76488726652303 0.0905139088908362 0.411601030313691 0.19101
0.19103 1.59209842116871 1.10131430000344 2.70722444676958 0.0713093935682873 0.441573852223856 0.19102
0.19104 1.49420569025429 1.20256660829157 2.48182674161389 0.0786860211982369 0.412921813835561 0.19103
0.19105 1.80686330276342 1.19531736502125 2.72754380981539 0.0840877134469289 0.449886054790022 0.19104
0.19106 1.86848292985468 1.33987698911774 2.72760913938293 0.0907637234563831 0.43660317417477 0.19105
0.19107 1.95413051534994 1.45091207844371 2.79011975358706 0.0983664756556122 0.466733911112606 0.19106
0.19108 1.74081100211463 1.23864697726717 2.82126316983305 0.0837236022083029 0.436658332823687 0.19107
0.19109 1.69795553996476 1.17264487614182 2.86624556270983 0.0764093098590781 0.444025083570577 0.19108
0.1911 2.05402506384889 1.36980093791711 2.77012068895396 0.102526183441718 0.447889015561211 0.19109
0.19111 2.25981444016092 1.61897964782982 2.84720912672683 0.106827265121054 0.47044294183743 0.1911
0.19112 1.62674044340388 1.27955574919021 2.69865820166876 0.0772427611118244 0.432660913389075 0.19111
0.19113 1.44369635238242 0.972743935326951 2.75984123084369 0.0661351182262204 0.439961559532056 0.19112
0.19114 1.64175606975141 0.995621337391407 2.87156251753959 0.0748129445675588 0.444964493658367 0.19113
0.19115 1.7642121916801 1.1341906486176 2.78436053410635 0.0819949855325743 0.462963534390735 0.19114
0.19116 1.74072872663581 1.44327210694529 2.93673292615411 0.0913700061833069 0.452157101747442 0.19115
0.19117 1.62687056242431 1.42131862877882 3.0911347821345 0.0820698709112701 0.497971218671043 0.19116
0.19118 1.4133825185711 1.27385698087977 2.99323098949577 0.078196614627665 0.460398834471061 0.19117
0.19119 1.53502567454974 1.52138294065135 2.81378589734687 0.0886771072203575 0.442963966917438 0.19118
0.1912 1.5036484769948 1.3041559944426 2.92898087187733 0.0803789527100407 0.461166607469864 0.19119
0.19121 1.68800723965693 1.67610661587523 2.91752180828087 0.0968087584029958 0.446351485709151 0.1912
0.19122 1.34623495220628 1.33931267636019 3.0415619760331 0.0716332806282846 0.467651974040356 0.19121
0.19123 1.35413395287524 1.35277841763557 2.79244105184748 0.080564808150487 0.456324537129988 0.19122
0.19124 1.44939242071179 1.49246532426847 2.98055132119823 0.0851632037899518 0.471510221300071 0.19123
0.19125 1.38959995419975 1.24177874721159 2.70338109727835 0.0769214603198715 0.418556339251957 0.19124
0.19126 1.38698256540108 1.08557127228799 2.76172277682151 0.068361700233108 0.443464952155205 0.19125
0.19127 1.51248547638117 1.09838210344501 2.83032244179337 0.0703744272750156 0.45756850896812 0.19126
0.19128 1.40436954207711 1.21662263545539 2.80308802724927 0.0670984476695768 0.452463468142576 0.19127
0.19129 2.09575577396329 1.18658053675444 3.05090105610762 0.0832842906449532 0.496928785368512 0.19128
0.1913 2.02730046530486 1.22239902081744 2.72955671265319 0.0904697796189513 0.471052621377216 0.19129
0.19131 2.03265663246692 1.46149058969956 2.73090988278516 0.0977090685977984 0.43633663830053 0.1913
0.19132 1.9985976576092 1.86546767196081 2.79383057486408 0.113064167865214 0.462117015738659 0.19131
0.19133 1.6873012210059 1.50105792451182 2.73307441516763 0.0839166299841331 0.435759034091593 0.19132
0.19134 1.78328697570362 1.38050256998463 2.95083582317208 0.0904684711842538 0.485273585683144 0.19133
0.19135 1.8640567839688 1.40101554519079 3.22369176276697 0.0939597954320775 0.505908763114176 0.19134
0.19136 2.03714558690111 1.44088108021141 2.94917404088073 0.100463283065019 0.495457651063694 0.19135
0.19137 2.03160818945228 1.14900506576994 2.76181760135335 0.0868591849126117 0.442284082489935 0.19136
0.19138 1.65237593944663 0.95443871217792 2.82936436235283 0.0782076427243246 0.456205611703489 0.19137
0.19139 1.2553936132308 0.837267319831234 2.96834429577364 0.0563504743356139 0.431748037236699 0.19138
0.1914 1.52180302600671 1.04210744231807 2.86291356984646 0.0714638350968406 0.45173397338009 0.19139
0.19141 1.62996312970061 1.37783670184275 3.08145220847763 0.0908314647424826 0.477165267645127 0.1914
0.19142 1.65931131138406 1.40819117723566 2.76032795411081 0.0818586807942016 0.443168164508633 0.19141
0.19143 1.63339117335146 1.701148199045 2.67033909327205 0.0992513573865052 0.438947290981659 0.19142
0.19144 1.79828828289691 1.63081097772071 2.56908232639649 0.0989999086275245 0.420869918797133 0.19143
0.19145 1.4517505793542 1.18900215395811 2.58250162891087 0.0674853663588943 0.409536548438155 0.19144
0.19146 1.61147750481587 1.29338598161138 2.71019573893844 0.0751782721107375 0.443282793578693 0.19145
0.19147 1.80944040104012 1.0896124737821 2.70322277604374 0.080696712202971 0.467023507903869 0.19146
0.19148 2.01762673949545 1.00307496977683 2.80221903757988 0.0827035708377768 0.47437861224578 0.19147
0.19149 1.67344523784255 0.952452353624603 2.76945902897159 0.076469526026439 0.452099236753067 0.19148
0.1915 1.48468090249805 0.840814961726317 2.77684086089216 0.0676681694439912 0.424755399013021 0.19149
0.19151 1.74217970100404 1.02744118975906 2.66902296099334 0.077739432289645 0.412134934917659 0.1915
0.19152 1.5820784994321 1.12153034361635 2.61096032967537 0.0804860989129909 0.432840185794152 0.19151
0.19153 1.60296464220775 1.43136339954658 2.94452774192235 0.0823802580692063 0.434579523134413 0.19152
0.19154 1.62120141248396 1.44916903034568 2.7530328801115 0.0896282901045302 0.459773932207639 0.19153
0.19155 1.43493911380641 1.22145001070961 2.7826095941146 0.0719238712546009 0.443323535398108 0.19154
0.19156 1.75766310708963 1.00987080021219 2.59983167971249 0.0788857211911207 0.412634745929213 0.19155
0.19157 1.61411708909607 1.00540577828219 2.75598769748517 0.0759235265758864 0.4226844353473 0.19156
0.19158 1.99557218501936 0.873110014193938 2.88089358829722 0.0874314845296864 0.481624236286133 0.19157
0.19159 1.62769307564458 0.666825160757097 3.07198358579806 0.066133478449104 0.462669873197968 0.19158
0.1916 1.57115769445191 1.06331481998825 2.71503947154517 0.081895440513698 0.438693795233297 0.19159
0.19161 1.54944207050385 0.888839632519793 2.83572728231117 0.06909018154005 0.432908028928524 0.1916
0.19162 1.33836258473625 1.21724483664349 2.67238517791723 0.0680324518696471 0.421103635240351 0.19161
0.19163 1.54819796299232 1.40667169669577 2.69105421670046 0.0936618458443496 0.407424433958406 0.19162
0.19164 1.76522649862784 1.09771079113987 2.82672064119127 0.0775151458688706 0.449697591321411 0.19163
0.19165 1.84400973429269 0.857092284137566 2.86185486831587 0.0836324705691942 0.458985067321887 0.19164
0.19166 1.62511198751106 0.455571711658641 2.77834329554416 0.0577556901193812 0.418101835167166 0.19165
0.19167 1.5755275087763 0.651045564229744 2.75524447894567 0.059129854488171 0.419280439331435 0.19166
0.19168 1.55790979998675 0.754008808462071 2.48649785069632 0.0715847658360156 0.390543475495847 0.19167
0.19169 1.53408794317912 1.32376008427174 2.67243821870627 0.0754678553992537 0.428177948380964 0.19168
0.1917 1.59868487569267 1.65664584616489 2.99335112949449 0.0977478846892052 0.472714502033318 0.19169
0.19171 1.75286790998034 1.47908889995249 3.05565152876725 0.0887620300432457 0.489349136209016 0.1917
0.19172 1.39472615445371 0.992124783229707 2.7278688196278 0.0689591284153591 0.424624969714508 0.19171
0.19173 1.1825088864929 0.614141159051904 2.68508871609216 0.0571054552679066 0.415753331283923 0.19172
0.19174 1.73397930965877 1.08720327999216 2.76868047399066 0.0804907646861522 0.459493205471653 0.19173
0.19175 1.82522335716609 1.49425905140251 2.73764944962465 0.100983164750749 0.428354529209153 0.19174
0.19176 1.58349381695754 1.58967677583056 2.7182762437207 0.0898630532229747 0.453035653861148 0.19175
0.19177 1.55945889860896 1.17737592374997 2.78735509005072 0.0758553731723346 0.431565483116914 0.19176
0.19178 1.28396922578073 1.0191384633823 2.71402214068466 0.0659123665965428 0.426517804779011 0.19177
0.19179 1.56112413513438 1.42711225751128 2.81069843963635 0.0835977258400749 0.445665554183561 0.19178
0.1918 1.62061300764068 1.274461588792 2.76202334997232 0.0768031457131122 0.428658138645264 0.19179
0.19181 2.01736907831463 1.36469352939088 2.92452902665202 0.0973125275047914 0.484843861584625 0.1918
0.19182 1.66489977931007 1.19236268983889 2.95100506495418 0.081473424194395 0.46488747167464 0.19181
0.19183 1.68206166948096 0.973984343855707 2.95497818500715 0.0690865136770846 0.47838724286558 0.19182
0.19184 1.8608647311415 1.06089140908732 2.96830191117483 0.0775240391133747 0.475001519085145 0.19183
0.19185 1.80608671427171 0.911764645803881 2.68326760695467 0.0745810366485581 0.430020930015415 0.19184
0.19186 1.3226937881221 1.19802894993169 2.69998167365987 0.0664705510499013 0.447917198823098 0.19185
0.19187 1.5985680350982 1.20491430943676 2.7885591233378 0.077785900726043 0.454122756824917 0.19186
0.19188 1.77467589348257 1.40514840984252 2.89035008366689 0.0896714759416009 0.477466394535948 0.19187
0.19189 1.96069842876652 1.75670887609487 3.0160831137289 0.104125216150382 0.483445297327882 0.19188
0.1919 2.00706602704062 1.54876660222171 2.80666091222682 0.0982988715154144 0.463791043626771 0.19189
0.19191 1.58531807757378 1.04555855749337 2.857766069786 0.0679854597160115 0.445680534618882 0.1919
0.19192 1.46360135871634 1.17658106303423 2.69288350927714 0.0794808946585322 0.439911274216665 0.19191
0.19193 1.26676596050654 1.3227545111619 2.77664263096931 0.0744711313852602 0.424300878008695 0.19192
0.19194 1.47376759636501 1.41228096182959 2.90219765610646 0.0804574538715101 0.464968557216355 0.19193
0.19195 1.5753207637575 1.50375440928241 2.8673774192822 0.0886631334994546 0.43455680580314 0.19194
0.19196 1.28612781484544 1.39082102725238 2.75404044509383 0.0717858420859842 0.437411514017318 0.19195
0.19197 1.5610320895094 1.12674103133646 2.91379186953026 0.0863173300585042 0.475952381577013 0.19196
0.19198 1.55960436585157 0.980561449956327 2.79518732392666 0.0674522854133415 0.444374019578873 0.19197
0.19199 1.87648772209874 1.05852863690693 2.6707409695123 0.0807974369366607 0.451639813137451 0.19198
0.192 1.94079183566313 1.85563451761118 2.7992147715459 0.111040303093832 0.465833230849733 0.19199
0.19201 1.78625058738001 1.62516434017773 2.81303510907912 0.0978527714971062 0.460085901911391 0.192
0.19202 1.58444766088347 1.3702417460148 2.85817362060841 0.0833583082268213 0.435427396203394 0.19201
0.19203 1.49164752494014 1.31017424234853 2.88482262643453 0.0764756073940788 0.471965813392803 0.19202
0.19204 1.89229971643629 1.45550805082553 2.86802496331747 0.0909249402381566 0.47343090108249 0.19203
0.19205 1.96682155849774 1.49660123487275 3.01722776593605 0.100781078340183 0.510739692474366 0.19204
0.19206 2.08328467041701 1.31021285318461 3.04260303628697 0.0896916865965154 0.461543608924643 0.19205
0.19207 1.92618345590715 0.951953086349775 2.92140065873722 0.0857976631865194 0.480306393381569 0.19206
0.19208 2.21929402188297 1.13799416074793 2.92049400264417 0.0859455943688245 0.501788558315946 0.19207
0.19209 2.06944461717202 1.45423288819736 2.88497505853905 0.0967215399290113 0.485492192272427 0.19208
0.1921 1.94460275840301 1.5353612345137 2.91189669642245 0.0946655000405907 0.477600456911949 0.19209
0.19211 1.89202304772748 1.44253876665497 2.76742482660085 0.0913973834388162 0.482104852913549 0.1921
0.19212 1.8610576315625 1.68782224585423 2.82141175902351 0.10122077227292 0.474855305804984 0.19211
0.19213 1.68448141451007 1.29535511461735 2.65836965932397 0.0847581344680091 0.42731387563871 0.19212
0.19214 1.61783967271756 1.09057231319738 2.65152284273363 0.0743142818495012 0.436674208330255 0.19213
0.19215 1.69175508884793 0.934772288953317 2.67049679740293 0.0764308022307931 0.432722832511761 0.19214
0.19216 1.59152980029331 1.25251958692249 2.93671783905114 0.077560756883318 0.449027427278316 0.19215
0.19217 1.66103627497564 1.67559195351591 2.92146507195718 0.0952584969109833 0.463338530634322 0.19216
0.19218 1.70704165877938 1.39449188593058 2.87403636315119 0.0886884375553764 0.462548135864125 0.19217
0.19219 1.45196362917008 1.63223862280919 2.63234073457853 0.0839582448496916 0.424001138814485 0.19218
0.1922 1.25774176551767 1.31587720562055 2.77707453913201 0.0704921533629018 0.439590119210482 0.19219
0.19221 1.26723972900691 0.944291420631706 2.96366096503036 0.0647007710383675 0.41888117794543 0.1922
0.19222 1.62290896708754 1.22119623752621 2.98639445808667 0.0831444894758823 0.467095812222126 0.19221
0.19223 1.63025133874473 1.27994412672882 3.21713085559848 0.0840631705520188 0.485406568715846 0.19222
0.19224 1.76348538723468 0.949226023750516 2.86916010284914 0.0743456468327454 0.445821839618758 0.19223
0.19225 1.42416481692239 0.61152310702423 2.95056822806016 0.0517834619672853 0.437429803115623 0.19224
0.19226 1.62051009898899 1.01792703037375 2.91291256052242 0.0703552828685971 0.459542160363937 0.19225
0.19227 1.64766940438975 0.948116402321367 2.95010265193677 0.0740540418363033 0.446516077738085 0.19226
0.19228 1.81267201178632 1.09977042633993 2.91179091963335 0.0875434639023871 0.451515064317899 0.19227
0.19229 1.83375751980915 1.19779274400689 2.55842322300628 0.0791109828950741 0.433816909381478 0.19228
0.1923 1.81161074766808 1.12063826629088 2.50316867627732 0.0703878382488827 0.454990181909338 0.19229
0.19231 1.79895256038101 1.42623562941478 2.63966478957106 0.0900023804543342 0.446610685455369 0.1923
0.19232 1.7929300713008 0.860798705655263 2.58639858226468 0.0682268052432568 0.423360197962749 0.19231
0.19233 1.64423668952499 0.959435913645518 2.77862704558948 0.079917236284624 0.420557925224394 0.19232
0.19234 1.79700680259737 1.16262115644531 2.77074521251646 0.08843181947106 0.447287326256027 0.19233
0.19235 1.67654943806002 1.29320357999869 2.94780350870797 0.0837497191439916 0.467211747603639 0.19234
0.19236 1.85298386302751 1.07854362766703 2.81758694383625 0.0717379618812399 0.463544838940372 0.19235
0.19237 1.79575047655093 1.55948157946393 2.86432950303483 0.0941769643075396 0.458200542006538 0.19236
0.19238 1.25807746888423 1.32309342170578 2.85596944421945 0.0787677032086043 0.442841744639504 0.19237
0.19239 1.58491487492121 0.994975598555804 2.98968885058762 0.0665246553080602 0.482845228298098 0.19238
0.1924 1.76736327970277 1.10842726645501 3.05214973728956 0.0809951863169458 0.483339961969218 0.19239
0.19241 1.63101437972648 1.05860022034169 3.09393160530404 0.0826540480924115 0.47811399195455 0.1924
0.19242 1.68557719830193 1.20813425709287 2.78276383230546 0.0803699813606904 0.450381865439151 0.19241
0.19243 1.60643986669221 1.28215125928652 2.87593910141412 0.0822878555886118 0.466521473416986 0.19242
0.19244 1.30764490822107 1.30907678026052 2.73768615931141 0.0762366515957576 0.406996057029083 0.19243
0.19245 1.60225510167054 1.22430079472259 2.47893847381624 0.0774222639728024 0.419566652268315 0.19244
0.19246 1.64683700459817 1.10021514017733 2.83235474755608 0.075249792853151 0.456656832644301 0.19245
0.19247 1.53414028782795 1.3606319147642 2.62083604499154 0.0779988582482951 0.39968742669832 0.19246
0.19248 1.60896271334538 0.977841261576306 2.49509896121053 0.0689413485540838 0.410464125014407 0.19247
0.19249 1.62300223650377 1.0675332320964 2.76787008725741 0.0763468773808768 0.432709443228351 0.19248
0.1925 1.59917048499567 1.08011297076958 2.68799935963233 0.0768610097162882 0.418775886957821 0.19249
0.19251 1.65630446734975 1.15307352551398 2.75179015273875 0.0770611565101011 0.443537423702924 0.1925
0.19252 1.45233753845348 0.920019528694374 2.73919997705737 0.0665160542070396 0.422620908258773 0.19251
0.19253 1.54674606436843 0.793911479542077 2.8243433090349 0.0700634089994369 0.441396927409401 0.19252
0.19254 1.85265505358759 1.17027886328708 3.09995269353445 0.0940586561801093 0.510154358364368 0.19253
0.19255 2.00038029058035 1.1852073497122 2.94120020226332 0.0839860793906017 0.480351315157739 0.19254
0.19256 2.05146478604408 1.0490928482288 2.82323074849645 0.0879338958514133 0.46419807767675 0.19255
0.19257 1.79030020961317 1.17140268856434 2.89234042700383 0.0846181812296063 0.49116212840932 0.19256
0.19258 1.52355255172349 1.34044846081373 2.95408579710289 0.073760687179625 0.458319205378922 0.19257
0.19259 1.86495870073367 1.44277335597818 2.87144407210814 0.0995273888175287 0.448032303475442 0.19258
0.1926 1.64286329043865 1.30627569725451 2.59242358653318 0.0895065222546734 0.409820848629995 0.19259
0.19261 1.78260094975487 0.979585244520612 2.62544069309284 0.0741228296161062 0.441963262623067 0.1926
0.19262 1.61158327551164 0.991325531432825 2.87410351261047 0.0640223293928452 0.442494895487993 0.19261
0.19263 1.6583591743906 1.27341543245324 2.86880192013674 0.079935845511844 0.450773263126566 0.19262
0.19264 1.6350903435198 1.11614657644743 2.83700582576161 0.078258183868534 0.426671269674375 0.19263
0.19265 1.79790387336985 1.21452667716563 2.83117931608973 0.0814502504262555 0.47377281369859 0.19264
0.19266 1.64322087593492 1.42381499313075 2.60749767150621 0.0887328489443557 0.443329131595235 0.19265
0.19267 1.61163517667778 1.24869892665294 2.69423527891811 0.0820487156202679 0.422519339510364 0.19266
0.19268 1.68484745074327 1.18560103226999 2.54123184959119 0.0785990232166645 0.407277952734417 0.19267
0.19269 1.65725827171273 1.33976308975456 2.59796834031136 0.0897955409399079 0.429536245279038 0.19268
0.1927 1.77165182491209 1.60912401148654 2.9807078107433 0.0924811995448926 0.469925963295791 0.19269
0.19271 2.00219208551824 1.28832187353937 2.97651223624002 0.102360673417499 0.464334882368476 0.1927
0.19272 1.86145414304151 1.23076180501863 2.91513194551357 0.0838769797317967 0.452032051230079 0.19271
0.19273 1.7246309808375 1.31328748549659 2.97812670935442 0.0869599028330586 0.48060375460408 0.19272
0.19274 1.57376465215463 1.22472463928495 3.02620303268775 0.0868070746885442 0.459829588540003 0.19273
0.19275 1.49568035371238 1.18836067060444 2.73888735312832 0.0741268141446617 0.444608058027597 0.19274
0.19276 1.78181685805692 1.53677309524853 2.82553457930614 0.094631340612534 0.481725920527827 0.19275
0.19277 2.020794694892 1.58430531657622 2.58273572304102 0.0952245905066229 0.442862318548082 0.19276
0.19278 1.94644152754704 1.36982218579982 2.81560906120951 0.0954538888310076 0.461730402213596 0.19277
0.19279 2.02250901008643 1.28035752895269 3.01499508867014 0.0846948569854411 0.495957781018776 0.19278
0.1928 1.9198163387659 1.58895310124764 2.99742630748129 0.0966014203753433 0.486306534733342 0.19279
0.19281 1.84589394435962 1.59666777348894 3.01006145099144 0.0923001380165945 0.501580855678055 0.1928
0.19282 1.53826746222399 1.49586568228423 2.93739132764475 0.0860947904635312 0.458405890600618 0.19281
0.19283 1.56507094233747 1.11519674216824 2.70666048356354 0.0793065927210647 0.424198499190504 0.19282
0.19284 1.76049136808831 1.1390139250817 2.81224887527599 0.0767806720024984 0.479953980729213 0.19283
0.19285 1.74649201098534 1.50679197000618 2.71751218290783 0.0925242061618514 0.445773589622717 0.19284
0.19286 2.02591470246222 1.75066610627356 2.73531222701993 0.108191823742495 0.45049702981113 0.19285
0.19287 1.96542037128021 1.44723005136485 2.71305843930092 0.097805444038861 0.447975599404161 0.19286
0.19288 1.62191551646128 1.59991418704173 2.707760561745 0.0870453776516887 0.454947354098146 0.19287
0.19289 1.43569781412256 1.38127203372716 2.60028498315557 0.0831223518684225 0.420734415403917 0.19288
0.1929 1.84357715633069 1.50797833924892 2.64330697354923 0.0967095656649635 0.449945920065347 0.19289
0.19291 1.39416875277793 1.10683066337159 2.88388433678544 0.0600061881198455 0.451103180409073 0.1929
0.19292 1.71117628611668 0.792938985756796 2.79842222986272 0.0694984254188053 0.465915435067012 0.19291
0.19293 1.83761903516971 0.855812962790177 2.98843542940364 0.0747759948786263 0.458219269029148 0.19292
0.19294 1.90371180831039 1.40267410132034 3.14341417224478 0.0877541926993897 0.500657645222461 0.19293
0.19295 1.93485660337341 1.54906171313731 3.10000069023572 0.0913842640169951 0.502250918829251 0.19294
0.19296 1.55047814836804 1.48757888230263 3.16593138874954 0.0947418355917765 0.485776916319021 0.19295
0.19297 1.47485726208554 1.02463161292633 3.0130434561954 0.0664692407650765 0.460691442662118 0.19296
0.19298 1.58232316789271 1.19133623813289 2.90412415313078 0.0744356718419439 0.473798986346089 0.19297
0.19299 1.6653310484224 1.13885477884566 2.78449742446945 0.0734994049456831 0.458144229724252 0.19298
0.193 1.61582105810219 1.4261344196318 2.62915315590359 0.0898333165740595 0.403652396189292 0.19299
0.19301 1.58936542370859 1.32486670566308 2.59389964784624 0.0771894785395364 0.439163651354879 0.193
0.19302 1.59209713358034 1.19976732202482 2.51918729668323 0.0762158830073596 0.415530204064568 0.19301
0.19303 1.53612268754619 1.00246133184788 2.70680093679773 0.0695424015471672 0.427198160548902 0.19302
0.19304 1.88599541887063 1.48877683031131 2.61496034039572 0.0924299489181606 0.434201722281347 0.19303
0.19305 2.07673874530727 1.465996306834 2.7353111714143 0.10554238032915 0.456526257043461 0.19304
0.19306 1.51195542919792 1.13398051887403 2.8127993629012 0.0719939171393925 0.452680813184247 0.19305
0.19307 1.61927901687638 1.51741307520278 2.91320118236145 0.0849402796440328 0.464044970514171 0.19306
0.19308 1.95912403302115 1.23228777201794 2.78204103896147 0.0923272121133766 0.420994512558222 0.19307
0.19309 1.83109219453734 1.02475124394575 2.89477116751101 0.0794411360438432 0.496789963532058 0.19308
0.1931 2.30054826536482 0.957286489496751 2.71083653932939 0.0972851632700214 0.433056390768337 0.19309
0.19311 1.81313333057399 0.870818133945505 2.71172317207053 0.0823990388977749 0.417845562785477 0.1931
0.19312 1.66617279484931 1.30400163649076 2.7112146995231 0.0817815824407533 0.440171190469326 0.19311
0.19313 1.66378158319053 1.09675432071407 2.64469960329876 0.0800161972900194 0.418427203000537 0.19312
0.19314 1.9623220278798 1.06317977377716 2.88567798171084 0.0837002353510922 0.457890282953367 0.19313
0.19315 1.8265864255059 1.40024371241609 2.92416977189674 0.0868052795063325 0.484076201433132 0.19314
0.19316 1.484466622067 1.64708116569795 3.01974724584975 0.0956503074462798 0.468745260903473 0.19315
0.19317 1.63204428926655 1.09389380933368 2.69427007577986 0.0749097864967848 0.438569110750907 0.19316
0.19318 1.60854790555523 1.07589368264166 2.77087278251409 0.0709220255402437 0.447836341151443 0.19317
0.19319 1.66523584487877 0.96802966540312 2.9058266771815 0.0756227129553005 0.427486492455528 0.19318
0.1932 1.58790597731945 0.748660241583382 2.7451248151095 0.0691894706637588 0.421113501608598 0.19319
0.19321 1.55164047723169 1.12332415348588 2.83003025582016 0.0742212439087875 0.4425915240098 0.1932
0.19322 1.70683051655699 1.28858568416846 2.85423510515295 0.0883143714018016 0.435820784086723 0.19321
0.19323 1.73345540752494 1.32089938050028 2.6912320336253 0.084566222884514 0.431970397259728 0.19322
0.19324 1.72736517601951 1.08677722065408 2.78538583245064 0.0862589695547754 0.460289619110442 0.19323
0.19325 1.4649350795397 1.19299728181168 2.96572073040831 0.074487570268746 0.474336363789844 0.19324
0.19326 1.35092281934979 0.687378424713346 2.82241987212455 0.0519624249152205 0.432644399194667 0.19325
0.19327 1.61216476412425 0.960302299700541 2.59339302120087 0.0699117256368553 0.431400986610156 0.19326
0.19328 1.65259442251954 1.20695768143447 2.54351991208669 0.085347973647495 0.423991417788883 0.19327
0.19329 1.9529579583013 1.14312626946585 2.82322886678806 0.0891103936036159 0.467191266498422 0.19328
0.1933 2.30656026946949 1.35700832475483 2.74930335689394 0.108010438083715 0.47471447408263 0.19329
0.19331 2.10984766340551 1.16724878859942 2.8524051733893 0.0982245955939893 0.464319709054252 0.1933
0.19332 1.84370730511795 1.30597278566911 2.69674622253277 0.095775494314045 0.431831402384872 0.19331
0.19333 1.27770998371725 1.19556027291749 2.57136707693122 0.0725663768015007 0.379460914959823 0.19332
0.19334 1.5508343806062 1.31750453826462 2.68888104840316 0.0767860096305712 0.443943752360793 0.19333
0.19335 1.67503761982667 1.09457194005076 2.77238360942802 0.0725786948534516 0.433026986596315 0.19334
0.19336 1.65160630607317 1.46086583364432 3.02130045701339 0.0888511332855542 0.455633300092137 0.19335
0.19337 1.78772901310019 1.40068927656498 2.94496584249517 0.0921808370319215 0.49006314186685 0.19336
0.19338 1.65380195311205 0.819791965393438 3.15680360029414 0.0639908296330715 0.488318483021456 0.19337
0.19339 1.62504166637095 1.1701021533628 2.77101596879413 0.0769452485801784 0.446262358166584 0.19338
0.1934 1.68207697046027 1.3992206591796 2.87089536037429 0.0847994057075147 0.474176297239411 0.19339
0.19341 1.69968787735897 1.8451207040559 2.98540811654897 0.0986513512401884 0.513183382573295 0.1934
0.19342 1.57617249260068 1.95789744659779 3.06696041004445 0.100618970023138 0.491648910540351 0.19341
0.19343 1.87817827979755 1.27074636978351 2.78015174588544 0.0850029090665851 0.445865846466919 0.19342
0.19344 1.77516811742084 1.38946550038875 2.70950976936773 0.0952056827913518 0.44932804708247 0.19343
0.19345 1.97530480472758 1.3153879747119 2.61473923586577 0.0914849092481731 0.423674000174997 0.19344
0.19346 1.70113300201608 1.08668051952156 2.60800255417808 0.0812153571695093 0.438176489143046 0.19345
0.19347 1.5887676559479 1.21361591517348 3.02748165983754 0.0829767575309659 0.462752227396962 0.19346
0.19348 1.84017023598907 1.58242793217153 3.10239735428328 0.0898621210541484 0.527670639189741 0.19347
0.19349 1.80559985956201 1.3948886585597 2.87416864000498 0.0995632429941884 0.440603366615971 0.19348
0.1935 1.91295497971395 1.77514311678141 2.80367043854175 0.108493964355491 0.469810384385415 0.19349
0.19351 1.69542216175149 1.38565037387751 2.69111258668222 0.0844486068200283 0.441003178758994 0.1935
0.19352 1.49215743449864 1.4254672354145 2.5692526601751 0.0800012610970756 0.388020586969648 0.19351
0.19353 1.60936901972715 1.0883076296479 2.70078135670328 0.0797040473589494 0.430356189851709 0.19352
0.19354 1.80590159363673 1.14416748692826 2.98709186419593 0.084764672259267 0.484866661637218 0.19353
0.19355 1.68804631359538 1.42046840627719 3.17360414463968 0.0930709591388692 0.477216577773436 0.19354
0.19356 1.78753127555961 1.20509950030885 2.90437378018136 0.0783069630750369 0.499308518310945 0.19355
0.19357 1.48561496220644 0.97758554090933 2.86142869370332 0.0708211127661202 0.411503046090931 0.19356
0.19358 1.55960149634732 1.26890513607734 2.85046486721272 0.0740877829833753 0.457026934044386 0.19357
0.19359 1.6199832673954 1.27043516398063 2.746244890597 0.0859899547087036 0.424289473511504 0.19358
0.1936 1.81966834045981 1.36629945591875 2.82045637723536 0.0864319669661541 0.475951002271903 0.19359
0.19361 1.85193095231826 1.48689053452711 3.14135045768561 0.0922842773116592 0.487701463342885 0.1936
0.19362 1.96198351386014 1.42671226115301 3.00198616720155 0.0987727568171442 0.476521118337668 0.19361
0.19363 2.10288392301649 1.49879619760798 2.91881384058568 0.095777319854035 0.462061065788967 0.19362
0.19364 2.26775745628251 1.45770653122372 2.77250528603409 0.108254954883927 0.444407462490919 0.19363
0.19365 1.93957263746737 1.49169726968688 2.62589614497139 0.0974673060305224 0.455504486504084 0.19364
0.19366 1.58306402300575 1.02088769284228 2.81371961311556 0.0732183277304837 0.414274855397076 0.19365
0.19367 1.79730971787632 1.16122903803916 2.81130396236704 0.0757984117981621 0.44951109253236 0.19366
0.19368 1.80484239930994 1.13790761631051 2.88569137324762 0.0867755550571124 0.443800673633559 0.19367
0.19369 1.74850513721203 1.64786331964677 2.78998444455327 0.0981239382354362 0.485519286447927 0.19368
0.1937 1.64471877511158 1.60755425214272 2.87381829759218 0.0925004837664142 0.459398664847299 0.19369
0.19371 1.24278580250192 1.85414834372042 2.98986183216006 0.0896959611436225 0.475452027892952 0.1937
0.19372 1.80997527725818 1.5156631596954 2.80384962654767 0.0980312013210681 0.41372872990432 0.19371
0.19373 1.74356578798817 1.23182673462305 2.76191233933585 0.0852998951538089 0.461541383502676 0.19372
0.19374 1.61415517666644 1.37321727408727 2.67961439476747 0.0829636901903943 0.42520003456667 0.19373
0.19375 1.93921133229614 1.38313000365711 2.720140097287 0.0965446452964165 0.443541087245238 0.19374
0.19376 1.48424307151993 1.32275217819037 2.86423612770361 0.0745320708446577 0.46995878582071 0.19375
0.19377 1.63726106562168 1.16766428207167 2.8995701294546 0.078403591752796 0.441072449091176 0.19376
0.19378 1.58529856451171 1.07198592068413 2.99925616694676 0.0848566961888475 0.471666241293811 0.19377
0.19379 1.80326748345566 1.03186894897584 2.80574548321589 0.0838610102542435 0.458745175123785 0.19378
0.1938 1.95018119109539 0.993444271838901 2.85550128314177 0.0746910658599531 0.505274511290714 0.19379
0.19381 2.05668661927268 1.23127331624424 2.69063581460302 0.0893339301040099 0.460089138230925 0.1938
0.19382 1.77754544869283 1.48512251971854 2.74278602130676 0.0920720125722859 0.435938288512239 0.19381
0.19383 1.78895062946819 1.15005622036646 2.8507169613901 0.0747299765174607 0.468657772692504 0.19382
0.19384 2.04277273431016 1.20986100011571 2.72913032515949 0.0940050013637535 0.430354470348558 0.19383
0.19385 1.98945752825513 1.10792456878392 2.89922382073789 0.0825889035424975 0.468291367476748 0.19384
0.19386 1.84561835045141 0.935178426644252 2.8784673681702 0.0749952926302071 0.454174944372499 0.19385
0.19387 2.20024062454471 1.02395379911503 2.59577756571596 0.0948512687007523 0.419511421552686 0.19386
0.19388 1.78448448128399 0.966347557913565 2.62606644124787 0.071236189893858 0.446167457387802 0.19387
0.19389 1.53996968418252 1.16754644369437 2.91423610320917 0.066906365692395 0.434591236813842 0.19388
0.1939 1.36486163154912 1.22270693013197 2.78098792444563 0.0730524823807088 0.434091109051213 0.19389
0.19391 1.66669365839276 1.05086724843791 2.86154985047475 0.0737103796312489 0.474021558158041 0.1939
0.19392 1.73700993374995 1.08631050088296 2.70588708554225 0.0888485046257345 0.42736671222576 0.19391
0.19393 1.65799573624259 1.63199682333071 2.63445835931777 0.0950150109348317 0.436627179430738 0.19392
0.19394 1.92742049046382 1.43616667662571 2.64148701809511 0.0820419774644039 0.469577064557879 0.19393
0.19395 1.61801363823056 1.40743747921202 2.86676172601652 0.0856787947753064 0.466957897228466 0.19394
0.19396 1.56208788453561 1.527255679067 2.79739344946212 0.0881199782940578 0.453288885328142 0.19395
0.19397 1.18406363530254 1.21806144096244 2.91875601862872 0.0676124532794784 0.437999263181887 0.19396
0.19398 1.36096859316016 1.13527705008858 2.93319820668782 0.0677825398375308 0.456827461274732 0.19397
0.19399 1.63251746241472 1.09854072437158 2.94258441877066 0.0714173837646802 0.489439314098965 0.19398
0.194 2.00943164735797 1.56526942949782 2.96032077973898 0.10136600791272 0.475130971951452 0.19399
0.19401 1.81904409943647 1.29777267895505 2.96565550268892 0.0871750194705352 0.471940335371298 0.194
0.19402 1.6673099697768 1.16511654441081 2.86302150738518 0.0818962124324324 0.453738227349016 0.19401
0.19403 1.59043745040858 1.34057460214745 2.72261283323369 0.0767282882287691 0.427297082650756 0.19402
0.19404 1.68164207218069 1.33730079138558 2.74406567544819 0.0868373582794723 0.446477854349897 0.19403
0.19405 2.0894714524036 1.01788574606877 2.76998061655339 0.0815662036996557 0.46122417445915 0.19404
0.19406 2.01306492295834 1.14915834685749 2.90110969408562 0.0846053958998643 0.456032842906663 0.19405
0.19407 1.6736934095889 1.14367654822618 2.74890656431566 0.0830141899864485 0.417364242445893 0.19406
0.19408 1.71196134443809 1.0138257198191 2.90015113679382 0.0711664833908996 0.457844825205976 0.19407
0.19409 1.67946263816453 1.15807790055273 2.72300769290638 0.0821889918740573 0.427940723277861 0.19408
0.1941 1.79831746518521 1.15558499567515 2.65914412912559 0.0837525498166022 0.44709808282782 0.19409
0.19411 1.86116372441093 1.0138409329684 2.46104393793334 0.0706805066305008 0.427098504948123 0.1941
0.19412 1.66916615902913 1.1455990764309 2.64496197252976 0.0865162189416878 0.428295712740076 0.19411
0.19413 1.71418734082709 1.37036891659706 2.65452015211599 0.0840604547979763 0.417129583173652 0.19412
0.19414 1.68133621667072 1.15109046122275 2.70429155846706 0.0665897087701454 0.435670180885133 0.19413
0.19415 1.53585680460182 1.03190402840299 2.87046677106757 0.0731764788983602 0.434515607741442 0.19414
0.19416 1.57781838600235 1.46747426672128 2.94118989535147 0.0839401965817932 0.509393306394598 0.19415
0.19417 1.83550800761279 1.44197327639386 3.05187457579226 0.0898974628802651 0.498341004391013 0.19416
0.19418 1.67088093460417 1.50342994215761 2.95426664193979 0.0916204437343294 0.467250058721056 0.19417
0.19419 1.884165135389 1.48523650261343 2.92580521981406 0.0900930114489132 0.475158102190668 0.19418
0.1942 1.72398605627527 1.3223109171195 2.73140391303363 0.0782575641295443 0.473154978084474 0.19419
0.19421 1.25718225926707 0.840015694902339 2.76850413008802 0.0598844366536556 0.410319662420763 0.1942
0.19422 1.48619025377312 1.27415446427112 2.9516661035534 0.0827140722723455 0.469859387238043 0.19421
0.19423 1.55699486419752 1.17912952506034 3.03465849380952 0.0788961033110609 0.466231620315214 0.19422
0.19424 1.76234920718453 1.36247744627438 2.73300428946956 0.0933606889588004 0.444670660719647 0.19423
0.19425 1.89717135158325 1.46097108151604 2.68244823766319 0.0937718416733638 0.457119352665948 0.19424
0.19426 1.69100329856589 1.34779957085004 2.73505753628705 0.0766705189348268 0.444233858470613 0.19425
0.19427 1.7493279845037 1.0126919887863 2.68186507776132 0.0832629606856253 0.413535304555226 0.19426
0.19428 1.51619307704745 0.964201437461892 2.81536845700367 0.0673139953482276 0.457343727637281 0.19427
0.19429 1.76364786764356 1.63478008558019 2.75259657480581 0.0991345053488152 0.431185174975815 0.19428
0.1943 1.88382615249288 1.16889459783525 2.74382520787785 0.0904795838861675 0.464046623178658 0.19429
0.19431 2.13385347760485 1.29959514209978 2.80919844572805 0.0961193541917886 0.47000469301085 0.1943
0.19432 2.09063119856327 1.50746654747324 2.86259876576832 0.107589367651396 0.46339487994001 0.19431
0.19433 1.77772977050765 1.29498450599906 2.96353190248216 0.0850096220091691 0.459140360857108 0.19432
0.19434 1.53679460350488 1.5236254989462 3.11569545451166 0.078960135883997 0.516947771832227 0.19433
0.19435 1.71177817431417 1.42529397381927 3.0419190067384 0.0899820817953609 0.494044268942979 0.19434
0.19436 1.85333142041803 1.47457202536551 3.01905320796982 0.100795964447677 0.466725231035169 0.19435
0.19437 1.83087360987159 1.75455367121047 3.09974001581006 0.0986356390906973 0.48974783400287 0.19436
0.19438 1.44084326725432 1.47601258498547 2.88843974407926 0.0840488260462176 0.467400980092635 0.19437
0.19439 1.84176011459507 1.33147120858755 2.66905537006917 0.0817562558662168 0.453075958284003 0.19438
0.1944 2.02712447766068 1.22267641818582 2.7221197824436 0.0894190476770381 0.442155968996835 0.19439
0.19441 2.26877877151508 1.23193112611245 2.62667379358895 0.103745336394369 0.431675740343063 0.1944
0.19442 2.1139598592967 1.30142334013287 2.74076834296386 0.0965363125218047 0.471693989118236 0.19441
0.19443 1.36574867010357 1.11488643377609 2.93337981309369 0.0738328491599377 0.456568562013978 0.19442
0.19444 1.18517732698637 1.20825137955404 2.76296427481631 0.0725809860100671 0.423529572914478 0.19443
0.19445 1.39948151846299 0.918525530123083 2.42403288689386 0.0580046997325768 0.409092189417974 0.19444
0.19446 1.62478311014166 0.738159845008199 2.56111181264817 0.068327901878554 0.404440740981552 0.19445
0.19447 1.97057867579055 1.32507597267123 2.67328805262463 0.0964128638769246 0.430398064290536 0.19446
0.19448 1.85671185070253 1.14078211687304 2.83400596688915 0.0834731072288313 0.449760762104371 0.19447
0.19449 1.65971836736067 0.618835544127685 2.81603224483273 0.0632728793067518 0.443860887777834 0.19448
0.1945 1.67568418629373 0.702443837211068 2.7748381824032 0.0665612917644116 0.440810380693466 0.19449
0.19451 1.53015738363788 0.943369223178197 2.7779660132333 0.0640779112161729 0.451836850993124 0.1945
0.19452 1.403043619739 0.846599322468358 2.77015235125691 0.0664493480962337 0.400568223378423 0.19451
0.19453 1.34004585381107 1.19462968500365 2.96744377933983 0.0692480119626056 0.475308541517594 0.19452
0.19454 1.48834776944117 1.33348005491954 2.97814473693179 0.0818393440800925 0.446886811547298 0.19453
0.19455 1.84160912032877 1.112446751566 2.93342434778694 0.0813749048989961 0.475950194302199 0.19454
0.19456 1.39475808041116 0.80551772184584 2.77409376175288 0.0503576101863505 0.431375982277075 0.19455
0.19457 1.77708015229254 0.769013170163572 2.58185075485229 0.0732069164939808 0.39279790595768 0.19456
0.19458 1.50717678174054 0.948341851687078 2.46041887158338 0.0648531321964027 0.386565099560627 0.19457
0.19459 1.70068594331424 0.57813336884659 2.68278674649504 0.0648577740254424 0.422592976961742 0.19458
0.1946 1.87964451898323 1.00209677969106 2.60059972174116 0.0834798609013301 0.432773439053431 0.19459
0.19461 1.75775278091455 0.955866313521404 2.71139232409135 0.0745586928938258 0.453432173565311 0.1946
0.19462 1.56779668166047 0.73009019115848 2.5821003168226 0.0687908365578968 0.404438540478664 0.19461
0.19463 1.50294393203157 1.03480452456161 2.72319000826115 0.0715765080098463 0.420868566299237 0.19462
0.19464 1.46542087681674 0.846574547906759 2.57492662443466 0.062630696691389 0.398057163745303 0.19463
0.19465 1.73088174238074 0.978227415168662 2.55358848677951 0.0797389416683183 0.416806314651944 0.19464
0.19466 1.86142834834273 1.07229864290132 2.70123424077883 0.0791976072323277 0.443951295013792 0.19465
0.19467 1.83878202874975 0.962234087636222 2.66723476515921 0.0776496257435947 0.431512881349328 0.19466
0.19468 1.77135143056039 0.796261007623359 2.84641185934776 0.0671263857118578 0.473387599981948 0.19467
0.19469 1.67439537390411 0.742964894855227 2.76449599078665 0.072739902313327 0.422913743502044 0.19468
0.1947 1.63822721509561 0.63256685559115 2.75702280327232 0.06260987344645 0.444999415998743 0.19469
0.19471 1.58880631981571 0.980311443412256 2.96225949330373 0.0736443593934268 0.43482155656051 0.1947
0.19472 1.21200943432807 0.894685892579162 2.58363712755965 0.0583569212689849 0.410268810606438 0.19471
0.19473 1.42517718360422 1.18435784009629 2.55758869803045 0.0766005343582621 0.406421768193802 0.19472
0.19474 1.69140888656414 1.06238420265884 2.51556012803788 0.0824686850050175 0.417688486993846 0.19473
0.19475 1.35771986619725 0.933370903755332 2.71568436762322 0.0634800376687183 0.431697414767757 0.19474
0.19476 1.53271740811388 1.16881834660016 2.67692117910769 0.0678583539714994 0.425107372058913 0.19475
0.19477 1.56946660196979 0.925814602150928 2.82530840277302 0.0667776093775536 0.473687783852524 0.19476
0.19478 1.50743241319616 0.852618832520659 3.00949374564146 0.0665512373571967 0.459236120406053 0.19477
0.19479 1.67313285175948 0.542665328440834 2.81336088385234 0.0670522654629463 0.430667912675164 0.19478
0.1948 1.50691484698648 1.10622923565743 2.67222902383411 0.0703304884619308 0.424606095051027 0.19479
0.19481 1.62881816825539 1.16015878394173 2.53652635724556 0.0814625762846983 0.413492636255112 0.1948
0.19482 1.65491184268804 1.35578452391422 2.50116563978179 0.0863635471630655 0.431320223175653 0.19481
0.19483 1.62545361728907 0.864736271002892 2.61131175421714 0.0678934025887186 0.400102715480098 0.19482
0.19484 1.4308849599295 0.83596786944496 2.72852183484427 0.0554980615936387 0.424663196900013 0.19483
0.19485 1.38032637298208 0.662040116867066 2.70754520482523 0.0606727187395884 0.408815173039916 0.19484
0.19486 1.7035668705853 0.623140664034167 2.80471887621677 0.063372455105659 0.455289820915352 0.19485
0.19487 1.79572039124112 1.00601963878362 2.57863992407834 0.0821833677967641 0.424917960727127 0.19486
0.19488 1.99505195374721 0.90159902473737 2.51797286042226 0.0841567203465874 0.403397897235886 0.19487
0.19489 1.90712346278811 0.76933012464833 2.51501919677552 0.0676559370011793 0.433839083881897 0.19488
0.1949 1.8155568622621 0.682632504795538 2.56288428937167 0.0678954522974175 0.415009921692433 0.19489
0.19491 1.44273872592665 0.246006100988131 2.64712435695265 0.0520121949987411 0.405207047695775 0.1949
0.19492 1.35978393296297 0.456196453592167 2.68197068525825 0.0507723663768971 0.414695795404681 0.19491
0.19493 1.57712994278869 0.566660629123813 2.5355485102831 0.0562568149485026 0.427437541642156 0.19492
0.19494 1.73940818054756 0.801522895762671 2.87497117102632 0.0666689437185571 0.437820545148096 0.19493
0.19495 1.75355024885404 0.613844998606346 2.83084322987182 0.0635441678198236 0.455037590031202 0.19494
0.19496 1.59155309365904 0.535130325520457 2.96884214920552 0.0638237623445037 0.437301839028575 0.19495
0.19497 1.34208204318063 0.37512269917271 2.64425144305586 0.0461747029746438 0.417996036403191 0.19496
0.19498 1.56156374202952 0.664546806186214 2.66180098848631 0.0595894914542883 0.434806011046392 0.19497
0.19499 1.43034131744052 0.559458851326672 2.54605207239487 0.0626621698586376 0.377017309803728 0.19498
0.195 1.67511852208283 0.782008211645573 2.65288574228982 0.0684952007315049 0.422792652704985 0.19499
0.19501 1.43677402742033 0.894558016226043 2.88948972844486 0.0633398593675881 0.446378997278018 0.195
0.19502 1.72237684451558 0.638809255297501 2.83551249578919 0.0654600748927232 0.425644939070402 0.19501
0.19503 1.35173345780483 0.967273394970514 2.75986730558226 0.0666279592892021 0.447479808245865 0.19502
0.19504 1.33800667446222 1.05068840961606 2.56189572169972 0.062804788073693 0.389906199643514 0.19503
0.19505 1.65686762719051 0.905954921269346 2.46897126106805 0.0782701080387066 0.414049515383778 0.19504
0.19506 1.77687480832515 1.05496892637625 2.67487942040158 0.0739699161874881 0.445506467357138 0.19505
0.19507 1.52987760882447 1.03566088171509 2.8566986783898 0.0752981484404585 0.441311754245769 0.19506
0.19508 1.76431300077276 1.18161197296851 2.81435693853654 0.087231858135277 0.439114979362337 0.19507
0.19509 1.62205695755302 1.09342165711807 2.57724966856236 0.0821039331597294 0.400618421607328 0.19508
0.1951 1.49277587801915 0.95744016704859 2.68688620587537 0.0711378138844395 0.409798174474372 0.19509
0.19511 1.91473692774845 0.871482282991525 2.55090307334399 0.0808766591116337 0.410004634941707 0.1951
0.19512 1.70974107093817 0.876838837051148 2.46047348409158 0.0748158938189921 0.425443959613974 0.19511
0.19513 1.86436299678393 1.11925358544244 2.77322535394974 0.087493342663587 0.416396187774979 0.19512
0.19514 1.84567515845106 1.06059041150544 2.79351059749602 0.0854050135049041 0.45187354765983 0.19513
0.19515 1.66968980107334 0.784464685428242 2.91980664420014 0.0712707924293056 0.466298545932043 0.19514
0.19516 1.34771043283961 0.79302967182021 2.9208659676402 0.0507684535553425 0.444798334246677 0.19515
0.19517 1.27961755128022 0.769556248921125 2.85809555735305 0.0632284876433798 0.426348322244442 0.19516
0.19518 1.5325490044581 0.686381700832779 2.65622089360743 0.0617087709459115 0.426266185407279 0.19517
0.19519 1.94807042813595 0.809589018935929 2.61921355366192 0.0744632343618918 0.436969699545474 0.19518
0.1952 1.59067345454808 0.81439611969661 2.89561349965284 0.0712476170936242 0.443139421989544 0.19519
0.19521 1.44056577416989 1.04109180166277 2.50376542478278 0.0700697822260665 0.395812481640004 0.1952
0.19522 1.48136439232963 0.838154929646478 2.42749893009512 0.068108659283669 0.37060144249954 0.19521
0.19523 1.46556223963739 1.27043659909547 2.60314182083967 0.0809687647717 0.413242636910949 0.19522
0.19524 1.66972358462691 0.672529116234137 2.54387248356619 0.0677491491859845 0.442765588656857 0.19523
0.19525 1.56008678450993 0.471121509055164 2.70702007420177 0.0587725460266926 0.41121855837439 0.19524
0.19526 1.55315358873909 0.753258771171897 2.60073130801871 0.0697352121908173 0.420470026281435 0.19525
0.19527 1.65595372266753 0.798827235198492 2.6841712067275 0.0640875970171202 0.42814046393696 0.19526
0.19528 1.46823132938852 0.806907741428339 2.61804418610082 0.0607188866279937 0.412610092195041 0.19527
0.19529 1.5426983498184 1.08973662471781 2.60262918724562 0.0770946940904684 0.401405498068643 0.19528
0.1953 1.6915659685089 0.578794047555924 2.73070869370598 0.0600472244853361 0.428388717091265 0.19529
0.19531 1.6487220771196 0.574302177462718 2.67302640496335 0.0703861839008002 0.410308620431585 0.1953
0.19532 1.77717518209397 0.906419934832157 2.69805040667726 0.0689465413983049 0.44272285950362 0.19531
0.19533 1.54090195972585 0.959025870677982 2.74425776531947 0.0719745634722393 0.417486348767765 0.19532
0.19534 1.22136578317475 0.679791852095856 2.56831335500262 0.0492978355185788 0.41995193712294 0.19533
0.19535 1.68504185024573 1.06406404755288 2.73806318628018 0.0754073417748154 0.454860599141023 0.19534
0.19536 1.52575254588745 0.680073595356339 2.79553127829605 0.0606543589775375 0.432129932121987 0.19535
0.19537 1.5960471300064 0.762797238774609 2.73307837913784 0.0703247607613544 0.4364588237359 0.19536
0.19538 1.8159165469412 0.583897598129519 2.66755697776003 0.0635191232769785 0.436124172548401 0.19537
0.19539 1.80217818966785 0.610937222069127 2.64632284481004 0.0768100499374449 0.41685570477723 0.19538
0.1954 1.71191877536519 0.420333796377832 2.74354331519883 0.0550110052488852 0.440977810566481 0.19539
0.19541 1.83690479946039 0.497159588778585 2.81270713560715 0.0671837846083644 0.463509616213105 0.1954
0.19542 1.58150645220353 0.659398563271708 2.82662279075443 0.0701913691732103 0.430806286250255 0.19541
0.19543 1.5974357689553 0.74874383878156 2.71836234244327 0.0660661912700746 0.43055916910874 0.19542
0.19544 1.39339152931795 1.1676442568128 2.50852438099743 0.0745603203896669 0.397265906737678 0.19543
0.19545 1.81074664349077 0.649245483890992 2.50898677518926 0.0727996623036234 0.391629536940222 0.19544
0.19546 1.68792736903441 0.472491302483381 2.46357943553722 0.0608705458683306 0.417736111380198 0.19545
0.19547 1.89911579513612 0.57651605065799 2.60619819000632 0.0695019921940149 0.417869772513304 0.19546
0.19548 1.47305091777879 0.841824284599594 2.7270273644097 0.0701358928883278 0.420508960120421 0.19547
0.19549 1.72193325795809 0.786022994905172 2.60658202356242 0.069584913388158 0.425583346203796 0.19548
0.1955 1.56110308845806 0.893342615026264 2.68340519941152 0.0752766811158199 0.407985016960473 0.19549
0.19551 1.50399849257125 1.04004287606466 2.5991934050521 0.0790523026725809 0.403467487175184 0.1955
0.19552 1.46220029909065 0.903153376216852 2.54713780436918 0.0603021180117523 0.416512076812813 0.19551
0.19553 1.63180371576156 0.664589620200855 2.64208920340928 0.0732848797232775 0.393563764303644 0.19552
0.19554 1.54418889987592 0.86933288722771 2.72791555766403 0.0715346255922488 0.415298830312715 0.19553
0.19555 1.50082977390185 0.683339362012669 2.71199938325635 0.0595588992787537 0.433509884842458 0.19554
0.19556 1.58031963190505 0.43146050364015 2.69834452996457 0.0585724032596715 0.426869944668504 0.19555
0.19557 1.46772090285863 0.381257263357668 2.60764708109433 0.0530631139727082 0.407442672172087 0.19556
0.19558 1.57439435465545 0.395103156596183 2.53707190633908 0.0521557221182434 0.415892970598782 0.19557
0.19559 1.72495514944372 0.241741257136911 2.49869655578955 0.0588118593719027 0.42485666321898 0.19558
0.1956 1.60245436500022 0.586671046695435 2.80225623713711 0.0592824594749272 0.413960651049083 0.19559
0.19561 1.6434235587565 0.506036224731025 2.62170057253267 0.0672668346366666 0.429103678902967 0.1956
0.19562 1.53060537748392 0.437332059156553 2.65452028499671 0.0523720309163784 0.40798612387849 0.19561
0.19563 1.46738170306642 0.742179949970185 2.4414805401805 0.058282967932351 0.395686298959938 0.19562
0.19564 1.88557254366928 0.566599585244462 2.41638136432105 0.067689218639299 0.400203554265718 0.19563
0.19565 2.01601553016448 0.633157043556438 2.57861069659748 0.0797382314752127 0.417401765991373 0.19564
0.19566 1.47875543581496 0.502030830240934 2.47794717909062 0.0516322761093407 0.400128881042583 0.19565
0.19567 1.47976229100017 0.632320904029397 2.70350467383088 0.0612704227571772 0.40179747220083 0.19566
0.19568 1.47170770689252 0.691731176377435 2.67433838343351 0.0603469165863569 0.431658549492555 0.19567
0.19569 1.44899531386606 0.735040973073498 2.65871915578672 0.0656676776203211 0.432729955212506 0.19568
0.1957 1.90444601427506 0.825310392066518 2.69214967906582 0.0821031679528128 0.442012197847112 0.19569
0.19571 1.5912625807601 0.744382298601296 2.93731576739514 0.0584133335503682 0.45151160022419 0.1957
0.19572 1.4779733696983 0.510977403972277 2.87399824561976 0.0587507762935563 0.454854105808139 0.19571
0.19573 1.44846867779182 0.733809584987269 2.84960548792005 0.0594893061794478 0.418887828953818 0.19572
0.19574 1.34696688535797 0.859652557664977 2.69053448458967 0.0586824915544837 0.418800357426644 0.19573
0.19575 1.6007455719251 0.515532622446638 2.59836508442469 0.0532666386466347 0.425261685933746 0.19574
0.19576 1.47346755258286 0.816851827195724 2.55901516519044 0.0639942732369174 0.412286620870492 0.19575
0.19577 1.56890885274866 1.25271744613268 2.48215082790759 0.0826875749218868 0.391243772931635 0.19576
0.19578 1.55593590402839 1.08234657252506 2.63725162079037 0.0737369047469123 0.429219482489493 0.19577
0.19579 1.63779789659256 1.08778963812571 2.76180149632325 0.0767430276768576 0.434019748435606 0.19578
0.1958 1.77241043366344 0.557810053754091 2.57770834938482 0.0678607470144993 0.399380921295142 0.19579
0.19581 1.80023114225013 0.847191668830198 2.79362313246479 0.0730152831286695 0.441767208442867 0.1958
0.19582 1.76074720084419 0.775765540146617 2.58803351272793 0.07348332922359 0.417222636122464 0.19581
0.19583 1.89668852067893 0.831424657172952 2.58035756399975 0.0707601161572435 0.440610378549369 0.19582
0.19584 1.80389458370749 0.626809112929015 2.77303376829718 0.0706554590173343 0.445676170119999 0.19583
0.19585 1.77249725804774 0.737796798123015 2.81379489202645 0.0634807737425445 0.465386523163121 0.19584
0.19586 2.01502116377713 0.840934721978735 2.92581369322636 0.0788892427602702 0.45996808774757 0.19585
0.19587 1.76222111420585 0.94213716630911 2.58973220444867 0.0715508604003715 0.426493977091992 0.19586
0.19588 1.61218414469181 1.22485871432112 2.63808807273062 0.0837513986011604 0.442703679971853 0.19587
0.19589 1.75224816027651 0.818764561010701 2.74942467233894 0.0698159803831229 0.438139821403352 0.19588
0.1959 1.30603469036897 0.770219683889043 2.59835231114402 0.0596031478670278 0.396506748129874 0.19589
0.19591 1.51430214106542 0.931698112224062 2.84616786491044 0.0750549937721314 0.44393766111073 0.1959
0.19592 1.64498081699101 1.06561686517562 2.65356782157549 0.0737649703897128 0.426497396462057 0.19591
0.19593 1.49868846960662 0.915209968500792 2.62227688466578 0.0708882022932793 0.404379651909718 0.19592
0.19594 1.4421398700916 0.744656538059814 2.58678659946241 0.0587989214475099 0.385149651819641 0.19593
0.19595 1.43328132580398 0.925593195196863 2.77541644941897 0.0640224879813875 0.431170079301158 0.19594
0.19596 1.85263994027074 1.08381429980631 2.77919255945921 0.085911991697631 0.449105139752639 0.19595
0.19597 1.55231904828303 1.03284922265057 3.13428747759734 0.071827062650286 0.487037590681151 0.19596
0.19598 1.52806082134908 0.967635840896573 2.90317108784089 0.0576246187138343 0.447727817586309 0.19597
0.19599 1.44754466990421 0.724265218048656 2.6305573304559 0.0611512769525197 0.426745904318849 0.19598
0.196 1.46822822803867 0.737191252420509 2.50620574537403 0.0608275086864765 0.393520357951138 0.19599
0.19601 1.58043948323215 0.857282410834971 2.41859438954916 0.0644313616573474 0.418152290565894 0.196
0.19602 1.46157183990405 0.728636875734396 2.71985850351381 0.0589663138893798 0.421431433467403 0.19601
0.19603 1.75942437309344 0.625017532052245 2.75432832520172 0.0718667837868162 0.427125148728147 0.19602
0.19604 2.18175803970054 0.763662243264717 2.68421325363356 0.0796836840686852 0.482640512474965 0.19603
0.19605 1.70101831605144 0.933930172611838 2.68610821127494 0.080270274255478 0.430428386540752 0.19604
0.19606 1.98570562501023 0.902315450090758 2.69748815123425 0.0794761128283933 0.442245851893393 0.19605
0.19607 1.70420226715321 0.627566214178074 2.77622150265063 0.0719193225797658 0.449459766756388 0.19606
0.19608 1.59556490422023 0.740934294944551 2.72415344418491 0.0635895897850829 0.428757768265441 0.19607
0.19609 1.93359663105856 0.729661698461045 2.87347377305271 0.0809835693098044 0.452648417201063 0.19608
0.1961 1.59120271208079 0.791637204039386 2.75140196347933 0.0679311640372544 0.446774691326717 0.19609
0.19611 1.65691995233893 0.838107238577548 2.65829842360638 0.066780662513241 0.416390059813156 0.1961
0.19612 1.49416348767842 0.818850337940489 2.64922761057588 0.0652457951886756 0.4103769104905 0.19611
0.19613 1.62743703776632 1.06476623408074 2.63359094147948 0.0729866258578649 0.439105079878816 0.19612
0.19614 1.43899372831321 0.723958049797198 2.78198076164199 0.0561998011137191 0.419333548536052 0.19613
0.19615 1.81836232028827 0.957226765068044 2.6326806727639 0.0776192054898791 0.410180567061375 0.19614
0.19616 1.63131089600399 1.00832104145532 2.60053349605316 0.076860138271895 0.433935523377254 0.19615
0.19617 1.29455955679526 1.05755302040717 2.7125886851279 0.0719146554885016 0.412719684807389 0.19616
0.19618 1.76471959013232 1.2390489871307 2.69828175536295 0.0893631434185775 0.43036149997839 0.19617
0.19619 1.38044513862635 0.694604510659882 2.86935739305127 0.0557646144541311 0.428060721988887 0.19618
0.1962 1.58689408125727 0.692173762725675 2.68377128585542 0.0631848193455156 0.419571348426138 0.19619
0.19621 1.82352342963258 0.693516828061268 2.59288997786219 0.0705457628841454 0.441894158846539 0.1962
0.19622 1.80409481072749 0.592180827263188 2.71663607125963 0.0703025360079492 0.414648361924583 0.19621
0.19623 1.85545213704147 0.509366260673054 2.72975051407633 0.0698151273822817 0.43966401625434 0.19622
0.19624 1.74606790377728 0.784432534489321 2.64653463801578 0.0693657625523846 0.429154809933704 0.19623
0.19625 1.47370984673994 0.94608883904834 2.52382032110814 0.0700624178954784 0.405902006049464 0.19624
0.19626 1.53212729589825 0.825903708604619 2.41446685297436 0.0672676732642058 0.392323037356903 0.19625
0.19627 1.62740558993572 0.75019279668013 2.59743781567797 0.0659252360352161 0.424702564990371 0.19626
0.19628 1.73372882238501 0.921597334003263 2.91107981626109 0.0713069103197458 0.474893107125575 0.19627
0.19629 1.67680562468529 0.927943758570608 2.79810456805268 0.0710015559917224 0.443446629788187 0.19628
0.1963 1.57492348603574 0.603635274689703 2.74442775254143 0.0629923089317475 0.449544315285374 0.19629
0.19631 1.33538702310578 0.405786028561508 2.83423052305948 0.048841891883435 0.424673015681091 0.1963
0.19632 1.45781404261833 0.441367671056745 2.80864204900415 0.0498093240074642 0.454857862924957 0.19631
0.19633 1.60826164141087 0.67983106457084 2.8391305027855 0.0545534294089951 0.460634991589311 0.19632
0.19634 1.49219993092236 0.858798515434325 2.90693060189452 0.0684596387703644 0.442366874053929 0.19633
0.19635 1.56953869525769 1.11081087919132 2.56842437043346 0.0719964527446627 0.424358790140438 0.19634
0.19636 1.84435234602265 1.03718295065303 2.5622228922432 0.075576736456514 0.435939883554464 0.19635
0.19637 1.98153180614686 0.766413914739361 2.51630690380599 0.0899218821658571 0.416278058727544 0.19636
0.19638 1.63624787934224 0.720398581548938 2.75476647315508 0.0708307188040058 0.429964530743534 0.19637
0.19639 1.61971815864298 0.49752509702669 2.71254817995154 0.0631313329605995 0.418904461087772 0.19638
0.1964 1.44884566636576 0.605790743042222 2.63360918729332 0.0597432855271514 0.414562328398257 0.19639
0.19641 1.51243327685885 0.895077592197028 2.79245414871731 0.0687048097755131 0.456982600106307 0.1964
0.19642 2.02476610616653 0.805911878416958 2.49044625493946 0.0778787653574394 0.417896720103752 0.19641
0.19643 1.87626393423116 0.626923132228438 2.59785453262497 0.0661287443534941 0.416623053336917 0.19642
0.19644 1.84489244734063 0.669941664203516 2.41875064850338 0.0791114416321979 0.402893544955328 0.19643
0.19645 1.48486201861141 0.851210286761955 2.43773392814457 0.063358533146107 0.411531342217884 0.19644
0.19646 1.76060887711429 0.785497312194655 2.62232747268508 0.0709409305071247 0.413102122155207 0.19645
0.19647 1.49382850443813 1.07468864454799 2.74525088780367 0.0757843238664131 0.428827554986041 0.19646
0.19648 1.63981751752041 1.12970011688632 2.76868571248917 0.0692519980482167 0.438804216242867 0.19647
0.19649 1.76883053923832 1.04590927338681 2.76317888069847 0.0759541405422704 0.457619424766582 0.19648
0.1965 1.70090569553905 0.657064810124319 2.74806977889653 0.0686951427023767 0.47541549861597 0.19649
0.19651 1.75591950739377 0.580120982063216 2.92862779950254 0.0620003866168102 0.467990167391121 0.1965
0.19652 1.82417698769618 0.542556814722706 2.95530599597187 0.0709678148297146 0.468909772967766 0.19651
0.19653 1.75143237114075 0.604397085457215 2.94991727456836 0.0714662388482796 0.473208558417938 0.19652
0.19654 1.78563796424555 0.792235039205628 2.73686876955864 0.0683916272285711 0.427673061908479 0.19653
0.19655 1.78027255090947 0.729407233885737 2.70293426457814 0.0735094439402581 0.427152502508883 0.19654
0.19656 1.77537935426434 0.940032072479346 2.37346849247434 0.0732275756897821 0.384273026262464 0.19655
0.19657 1.6373975624989 1.18481038834072 2.47379422681917 0.0722175212744685 0.408307845528265 0.19656
0.19658 1.53175700328343 0.954242594783327 2.40466758854766 0.0706519108554972 0.404856749338219 0.19657
0.19659 1.72946983579611 1.10181104718087 2.80888936735793 0.0787052441919748 0.429601197149693 0.19658
0.1966 1.64759010787778 0.945016490087998 2.70898197243382 0.0722233863478108 0.428661778981407 0.19659
0.19661 1.86692058510316 0.976161803000178 2.7638814436062 0.0781358204774376 0.427295303345171 0.1966
0.19662 1.8079068392859 0.926962488703057 2.63807989316111 0.0780517754417614 0.437937923770661 0.19661
0.19663 1.5030062332888 0.532188442768058 2.78496267935074 0.0525435985302945 0.460748851553766 0.19662
0.19664 1.78206560288927 0.396067442774812 2.76191897396894 0.0710936782845351 0.424848147041075 0.19663
0.19665 1.59951329230046 0.584485141476302 2.76674949809951 0.0610486480924147 0.450100450830128 0.19664
0.19666 1.842539837017 0.740105569754411 2.83091383778128 0.0758684803922063 0.420990087996993 0.19665
0.19667 1.71271732363705 0.733868927913415 2.63664961286459 0.0663202311044791 0.424065073047723 0.19666
0.19668 1.87414758815915 1.20307352056134 2.60662167138839 0.0872601861382994 0.425665352965302 0.19667
0.19669 1.76019050212755 1.04703338085159 2.63676786178639 0.0709672970853278 0.433938290757559 0.19668
0.1967 1.47616420331181 0.958542418544873 2.6876597651415 0.0631546957988541 0.393163235062771 0.19669
0.19671 1.54488897164123 1.22414353118028 2.75522359830375 0.0846281543720187 0.431695613124774 0.1967
0.19672 1.55043965280137 0.66784153572231 2.9193005813999 0.0676048968977481 0.468846802553741 0.19671
0.19673 1.81780748871885 0.894967018281593 2.64174037392756 0.0682441607682795 0.427852476921387 0.19672
0.19674 1.74201585496255 0.490330064116334 2.79040252081731 0.065835958270121 0.409961506441298 0.19673
0.19675 1.65727052340174 0.738932450616051 2.87634139477426 0.0684916742539989 0.476512002304694 0.19674
0.19676 1.7054916293229 0.780788925248552 2.99479840316382 0.0706826849835091 0.469512140001092 0.19675
0.19677 1.72782584042411 0.911253721710903 2.87437898211795 0.0785003127382163 0.455377372493945 0.19676
0.19678 1.83608683911245 1.13023389503938 2.84439949476375 0.0817029007112095 0.469636706649561 0.19677
0.19679 1.79649136825284 0.926373500504787 2.83418548713158 0.0757060828474624 0.447796685835456 0.19678
0.1968 1.70096000454892 1.40699090719937 2.72595220917191 0.0912596347149678 0.447357728978858 0.19679
0.19681 1.59877927942721 0.590999658103577 2.71283578687865 0.0608201905949519 0.417479435878858 0.1968
0.19682 1.66327962882916 0.768578140642099 2.5442660040192 0.0709685350953059 0.393910090683693 0.19681
0.19683 1.79211714365103 1.01710747016362 2.65444716730136 0.0770720673050822 0.429639157722594 0.19682
0.19684 1.72669908151018 1.1748442567713 2.5542918500298 0.0862993222410165 0.400193777816374 0.19683
0.19685 1.82366769346511 0.909805693804941 2.62904760160374 0.0843120965441393 0.431049404258167 0.19684
0.19686 1.65040023211798 0.863117043048614 2.67348441888121 0.0646898579224707 0.421450784712242 0.19685
0.19687 1.63518983537475 0.854261446612675 2.58042717127344 0.0711424434782658 0.431649076781827 0.19686
0.19688 1.61531553206204 0.875489693532213 2.79812476609708 0.0719638516283631 0.432136386420185 0.19687
0.19689 1.43555379387218 0.850033856595346 2.62362154643328 0.061467036465746 0.410393699434973 0.19688
0.1969 1.69545478723273 0.844577945637777 2.84547201472562 0.073146003583946 0.470040620174545 0.19689
0.19691 1.79821333663631 0.766365342871599 2.87059961545618 0.0654201305739938 0.470924633867212 0.1969
0.19692 1.55224018934746 0.691641595814745 3.04833493381462 0.0659723985277458 0.467757569849108 0.19691
0.19693 1.62810328985445 0.403890677062517 2.8221273936584 0.0658550120732578 0.43668770423808 0.19692
0.19694 1.60863794657332 0.515604761728899 2.91052980006181 0.0577819175835795 0.457926124227465 0.19693
0.19695 1.81082694299126 1.04287109766155 2.87737273352012 0.0814223066157851 0.469470704213267 0.19694
0.19696 1.52857184591015 0.877080640890782 2.88856970433906 0.0756665246173419 0.434869378886912 0.19695
0.19697 1.4801095425131 0.755823233353576 2.71381005356567 0.0582042954891486 0.421381221985051 0.19696
0.19698 1.5797678767278 0.922724739407469 2.51776838351253 0.0722817277634088 0.425135871550691 0.19697
0.19699 1.64991399271368 0.615087359954816 2.48182266005902 0.0563588985292842 0.404870902455175 0.19698
0.197 1.50992827044374 0.604067164538961 2.34693563075051 0.064711939854764 0.386838153847886 0.19699
0.19701 1.57289469339128 0.797903890385505 2.52379950625099 0.0710291506787503 0.38429951121054 0.197
0.19702 1.57390808202397 0.635595908073546 2.34308814285929 0.0581826316842178 0.410273209307002 0.19701
0.19703 1.43953738159761 0.744117162195943 2.58107367333233 0.0564161613986948 0.399839564218943 0.19702
0.19704 1.79810703919667 0.74239789517468 2.76214645988969 0.0640903292355371 0.455301387047625 0.19703
0.19705 1.31042289174072 0.576251050729773 2.75944316604766 0.0534781715458643 0.43062163957428 0.19704
0.19706 1.72121278726506 0.760000405579498 2.743251397509 0.0725280676271092 0.426006704481228 0.19705
0.19707 1.70232989690887 0.859301840872276 2.82751950206997 0.0724607616175478 0.426613910190635 0.19706
0.19708 1.81709616929767 0.757701467952963 2.81245120349613 0.0800238369465657 0.449733065076861 0.19707
0.19709 1.72575402454943 0.630005231950897 2.68614635509478 0.064019652534233 0.418977820008046 0.19708
0.1971 1.74795397871405 0.855107068346286 2.66730712490707 0.0731085079105236 0.438334984041333 0.19709
0.19711 1.70688223312486 0.805595515710054 2.64493497118278 0.0759380487025948 0.424449661543779 0.1971
0.19712 1.55935210798885 1.0202065816568 2.72660711066375 0.0739265642192139 0.432379401821145 0.19711
0.19713 1.78149591378033 1.12892582908419 2.54711120260938 0.0860183569820831 0.411045838361798 0.19712
0.19714 1.56765966007628 1.03186028657432 2.60819584584233 0.073300418665443 0.400899688135887 0.19713
0.19715 1.3998709746061 0.675232314922635 2.96691070955166 0.0529516071344311 0.466867744627192 0.19714
0.19716 1.53411292719991 0.562426849018129 2.92179927354577 0.0532673210775588 0.457014070896371 0.19715
0.19717 1.9369228556815 0.645467017610595 2.93472504883806 0.0743505637641926 0.472835515965237 0.19716
0.19718 2.06130744261902 0.538856216312473 2.93203503668143 0.074835388256679 0.469395225651955 0.19717
0.19719 1.78283216863573 0.831075397912723 2.63792700299264 0.0789057536252502 0.400116272820237 0.19718
0.1972 1.38407221599069 0.522924568441779 2.49810220600914 0.0541307840661573 0.389271481178512 0.19719
0.19721 1.4017182957468 0.775777646274701 2.51562561329019 0.0604258259485257 0.411927941533863 0.1972
0.19722 1.8947429624634 0.949419964198881 2.68072174903965 0.0806662815922529 0.435556111334245 0.19721
0.19723 1.99430092878443 0.730263859716174 2.90870510639596 0.0764208376402942 0.45029613843591 0.19722
0.19724 1.738240407094 0.839576994876138 2.50195410577999 0.0715800604652338 0.419361210482338 0.19723
0.19725 1.71409971464078 0.796764755755702 2.66658683224918 0.0719894327423319 0.406845886833696 0.19724
0.19726 1.36594991373599 0.588816490773869 2.48206933929687 0.0534261481322446 0.395432438669084 0.19725
0.19727 1.90072963826743 1.08494642690703 2.53260862150912 0.0811857227328237 0.407937449919103 0.19726
0.19728 1.67267754941516 0.695867315033579 2.59290407063383 0.0680051801359971 0.403851885358531 0.19727
0.19729 1.41172353953216 0.997277880893884 2.66527462453941 0.0723292063674452 0.408009625502788 0.19728
0.1973 1.53915863207306 0.320703159681293 2.8322242549459 0.0555187100517324 0.475142456320202 0.19729
0.19731 1.65765107194344 0.556717023569727 2.80722928900092 0.0747787627449519 0.426968091918424 0.1973
0.19732 1.56100450031175 0.89626843536232 2.63367746440182 0.0697884232524319 0.417566280927689 0.19731
0.19733 1.57461426483686 0.833387710499661 2.94093311139213 0.0656976376178633 0.457580980492983 0.19732
0.19734 1.30465326747424 0.521243452458323 2.87074357936422 0.0495283620712622 0.448206480866689 0.19733
0.19735 1.4437629706856 0.656358717608144 2.91118600417756 0.0534640443794252 0.45764354692195 0.19734
0.19736 1.74715212578251 0.907844282383131 2.72793992408771 0.0757042351232518 0.425331745455203 0.19735
0.19737 2.0586876851946 0.793060482246062 2.55848654225523 0.0855032785468371 0.403127178477018 0.19736
0.19738 1.78449356299532 1.01497911798984 2.44467384497402 0.0733829877531086 0.401829034507301 0.19737
0.19739 1.6257322106439 0.714124369580541 2.62567798792862 0.0693915253831048 0.400943302431408 0.19738
0.1974 1.39971507612701 0.681466322536698 2.75036526393058 0.0630346166308104 0.432359368974651 0.19739
0.19741 1.52972772825957 0.618104598618681 2.74412769691917 0.0597432933819115 0.451444340413498 0.1974
0.19742 1.65391807076732 0.842984389144992 2.85838092289585 0.0701136719584134 0.461997165123338 0.19741
0.19743 1.56720374343046 1.05777080759376 2.70626514993347 0.0769203542320425 0.423362060591219 0.19742
0.19744 1.81800300438944 0.9681261266657 2.63885589783891 0.0803651020643423 0.419272207157187 0.19743
0.19745 1.52634037474895 0.753838469589943 2.54710597552419 0.0570716432752595 0.441105969695125 0.19744
0.19746 1.3966708916225 0.869335985230632 2.55955209125194 0.0651557763679404 0.40432018719458 0.19745
0.19747 1.75987172515801 1.23406241070308 2.80312251775665 0.0824276172679467 0.456143765485815 0.19746
0.19748 1.82649638009593 1.01400381416663 2.94048222334496 0.0823208251793236 0.449692361026081 0.19747
0.19749 1.84479605265884 0.726692402119632 2.91708292050222 0.0698917622840656 0.48213682389104 0.19748
0.1975 1.55886542372149 0.722808181030385 2.81867361042058 0.0593893682288999 0.463955436069335 0.19749
0.19751 1.78702582695012 0.767159967794076 2.81493079024889 0.0774988141381778 0.439272504323983 0.1975
0.19752 1.97363153873931 1.07307280672125 2.62589222209249 0.0895030875471303 0.438787972559489 0.19751
0.19753 1.92418456114207 1.28774674272785 2.72037279377285 0.0922284242995899 0.436078612443209 0.19752
0.19754 1.74311727365322 1.1300121557075 2.9156769276791 0.0762967072695564 0.441683130114154 0.19753
0.19755 1.84617448447944 1.33086235094927 2.67174935653647 0.0942034549426017 0.433839107282947 0.19754
0.19756 1.54699688042387 1.10337502386668 2.7756031117208 0.0860218014170077 0.442997689601819 0.19755
0.19757 1.54261957574427 0.783155660902163 2.55088967532312 0.0669108847764123 0.40950993338463 0.19756
0.19758 1.79099639123913 0.921074678153248 2.69731637371439 0.0781008569600539 0.442293607742344 0.19757
0.19759 1.89591793262067 0.69216512752315 2.74538563595142 0.0690547420132797 0.471831709893901 0.19758
0.1976 1.93171129336281 0.612087025279341 2.87256437135619 0.0702697789047703 0.462117151685926 0.19759
0.19761 1.77609123916906 0.56014786670664 3.01425322631103 0.0681962473737227 0.46943562016083 0.1976
0.19762 1.71878298268239 0.916177384395711 2.97383417219672 0.0728117687342219 0.455812286030833 0.19761
0.19763 1.76684519004968 0.66871726071106 2.74909393027722 0.0646362899464978 0.45105540441739 0.19762
0.19764 1.69867497589885 0.834909319323651 2.67376104584662 0.0668002510938809 0.418071426951947 0.19763
0.19765 1.77083047392549 1.13867833664156 2.60515824082849 0.0819060341834997 0.404465264035946 0.19764
0.19766 1.56633279849029 1.02714098289723 2.62174899205592 0.0692206370543597 0.428481198610683 0.19765
0.19767 1.52583240258013 1.02372716763471 2.67389833356512 0.0757883992767026 0.420492726546687 0.19766
0.19768 1.43588913719361 0.714119394783496 2.50029033494892 0.0730607300350737 0.34475838646905 0.19767
0.19769 1.4703120323368 0.520249973929486 2.48969554209165 0.0504818915000798 0.401361249787701 0.19768
0.1977 1.48360146499054 0.751851431432896 2.73338375936068 0.0648787311479677 0.406095946763213 0.19769
0.19771 1.72692250862577 0.879935646395863 2.79806980523709 0.0748289129721863 0.462584022492726 0.1977
0.19772 1.61723583522819 0.756971925033042 3.07589875902605 0.0668655230434469 0.45731355972535 0.19771
0.19773 1.43139910988462 0.617214853085881 2.89762826317908 0.0560074811313557 0.432462042827708 0.19772
0.19774 1.74100820454334 0.580441155175889 2.77741795403981 0.0691600167703566 0.443885228130384 0.19773
0.19775 1.42406186040319 0.587889416410087 2.73740472709518 0.0643043255254374 0.420365442342434 0.19774
0.19776 1.41208031646353 0.425832841592021 2.71234075449098 0.0566203431169059 0.413646345028013 0.19775
0.19777 1.54974227096822 0.560846158487616 2.56294843178899 0.062081275473812 0.432395161692716 0.19776
0.19778 1.89330801360375 1.26094595721303 2.62625643896786 0.0906099727763686 0.446387577339287 0.19777
0.19779 1.9070596965401 1.07594738097496 2.83249351886787 0.0889312088336544 0.464637249157992 0.19778
0.1978 1.8680056208697 0.999183835949928 2.85997973327196 0.0733965379859491 0.463093007907884 0.19779
0.19781 1.89169755894986 0.8613500548633 2.60185880444028 0.0831927084518048 0.442309405083548 0.1978
0.19782 1.57546379101992 0.434813266358629 2.79983800954603 0.0589139154038539 0.439469224090233 0.19781
0.19783 1.68214010140735 0.753673763370799 2.73774340518976 0.0703514885265771 0.427414806115628 0.19782
0.19784 1.96959984083436 0.87950506051054 2.6112324930782 0.0837888790586849 0.431836264283337 0.19783
0.19785 1.85650792117397 0.545413538362972 2.47308350924094 0.0689621556945454 0.413995382418516 0.19784
0.19786 1.54502545391142 0.754079687082888 2.65680421278712 0.0660101282045366 0.418066791686081 0.19785
0.19787 1.69228447180022 0.884255469491971 2.73730096916091 0.0725537548858532 0.43575700971046 0.19786
0.19788 1.66842214408239 1.02847914222733 2.97866703464892 0.0815102052457578 0.477774935170023 0.19787
0.19789 2.03109455066437 1.0922648097937 2.75068016048858 0.0839808971286448 0.445638491458413 0.19788
0.1979 1.84895888825405 0.991242628032948 2.65981506405465 0.0783969015666392 0.44966945514238 0.19789
0.19791 1.75274914974641 0.893104747627719 2.82073255795205 0.0710945728690842 0.436124485085172 0.1979
0.19792 1.46056564004978 0.603444762853194 2.81286121056749 0.0517006692967743 0.444945079242301 0.19791
0.19793 1.77442244022981 0.786899764363899 2.8659128826087 0.0816330682819167 0.421764628664387 0.19792
0.19794 1.38197934561749 0.953604701395165 2.76919711219767 0.0567906645306084 0.414806348505374 0.19793
0.19795 1.58024672155969 1.02478992278188 2.6578248916382 0.0767207616932748 0.434798022876024 0.19794
0.19796 1.67376965875927 0.979506511498826 2.70661944434365 0.0705296236327437 0.41664762751849 0.19795
0.19797 1.63171233122228 1.08452980799456 2.55364499581532 0.0788649050433411 0.392982958330832 0.19796
0.19798 1.48335535265766 0.890927200215008 2.73537901442812 0.0642846417202781 0.442151211275408 0.19797
0.19799 1.92764128889231 0.837474234966397 2.86088109024358 0.0692691562194545 0.445739823700012 0.19798
0.198 1.72192836836666 0.848270878842208 2.74485117051906 0.0728303182846462 0.424356830493689 0.19799
0.19801 1.68547597026579 0.589514449417085 2.87529973856809 0.0662166018057352 0.467513986995395 0.198
0.19802 1.77868137092347 0.539477568100227 2.73358066214157 0.0646755760928304 0.443251098206207 0.19801
0.19803 1.4910125648535 0.194320712879205 2.74424279534464 0.0445315327399595 0.410906183768775 0.19802
0.19804 1.33109187878838 0.320659360846685 2.64147526031149 0.0433079242795678 0.420743180710758 0.19803
0.19805 1.94974830154058 0.529806928287476 2.85472944902438 0.0679350480369227 0.457510334614749 0.19804
0.19806 1.89010387791731 0.662492676876384 2.75146476517667 0.074170504213503 0.459237984356102 0.19805
0.19807 1.95413419596482 1.00330607662205 2.73312027069897 0.0899810126511857 0.438184114891878 0.19806
0.19808 1.49693895053249 1.17357382880578 2.44627238242439 0.0738855713729768 0.387034800768688 0.19807
0.19809 1.42833541417675 1.15237702724925 2.64457572843222 0.0738689720252598 0.408107654550252 0.19808
0.1981 1.5674251765622 0.598536023684055 2.52883212346387 0.0609052949780814 0.393808549905701 0.19809
0.19811 1.8384823935324 0.810795625742903 2.5110088760164 0.0726120391852936 0.431827589358307 0.1981
0.19812 1.93796126244359 0.458571460315997 2.70150010443636 0.0628694676660689 0.443321933636229 0.19811
0.19813 1.79395738091914 1.08187637720789 2.81748763024068 0.0735183065533567 0.466071580332209 0.19812
0.19814 1.88788335021023 0.882395990718758 3.12276435311723 0.0730771694034396 0.487327571363462 0.19813
0.19815 1.50063847042953 0.635944242863617 3.12228008300722 0.0518535552276012 0.498413020106749 0.19814
0.19816 1.62354013463033 1.00235486708943 2.9336949724365 0.0722919160816423 0.455686143993997 0.19815
0.19817 1.17862243060454 0.792543666232728 2.7822938560221 0.0560597632600191 0.42814774757617 0.19816
0.19818 1.37417013002608 0.894524709935167 2.66492093182397 0.0568578904526267 0.422559106581278 0.19817
0.19819 1.76236080769625 0.829288486587076 2.58449827895703 0.0783831467036307 0.407804784893171 0.19818
0.1982 1.78733448350699 1.04177918881904 2.56082659865545 0.073787207736422 0.404270180936825 0.19819
0.19821 1.75934911910617 1.20302280576995 2.61445348013742 0.0821936009390683 0.418557617345327 0.1982
0.19822 1.7304868607878 0.884831008497729 2.91241358675461 0.0699082604817028 0.463389001721133 0.19821
0.19823 1.67565428705308 1.17648545105209 2.78773617488791 0.0722016692474428 0.459321229439674 0.19822
0.19824 1.80451233438487 0.729752816643546 2.87845353187282 0.0692598328326478 0.449367393379384 0.19823
0.19825 1.60205412950789 0.873983500612172 2.70273089094613 0.067961020382902 0.42903263603483 0.19824
0.19826 1.73084483781343 0.813943699944307 2.59243843448784 0.0803199957467732 0.402293289945582 0.19825
0.19827 1.85882819543402 1.21375216486518 2.56709891254035 0.0865499347707063 0.419185450434288 0.19826
0.19828 1.76445161952031 1.19288324194144 2.5974369866349 0.0819989441185276 0.431715455829863 0.19827
0.19829 1.84847953785697 1.0834435276519 2.89145644450161 0.0784686304063515 0.455567019873923 0.19828
0.1983 1.54038551182124 0.982428269425272 2.75677017504331 0.0703523677123592 0.437865173030523 0.19829
0.19831 1.56122496878397 0.853207665948764 2.70330427402808 0.0707559345254232 0.418067277835919 0.1983
0.19832 1.83987984779711 0.94042684773433 2.79146453473816 0.0786459051689041 0.454872887248718 0.19831
0.19833 1.74745884743767 0.863976807323424 2.96365485199472 0.0757673149759354 0.446049280594108 0.19832
0.19834 2.04455103746322 1.07762901343788 3.03335759895595 0.0760437395136474 0.513310942495733 0.19833
0.19835 1.56495625770321 0.960578178389691 2.94594781183968 0.0824938218447365 0.450535419832784 0.19834
0.19836 1.82114352465107 0.879600947274272 2.8355935290535 0.0711833285669727 0.456770283160329 0.19835
0.19837 1.81841392603244 0.681450408569177 2.75442858654922 0.0672903078406253 0.444044777499989 0.19836
0.19838 1.84919038455691 1.12331735446446 2.35676028825372 0.0849171843718543 0.388520051477565 0.19837
0.19839 2.06717675283514 1.3576290675572 2.36631213261031 0.102223728742713 0.389142683558351 0.19838
0.1984 1.63163107618972 1.19371714925627 2.37753963019127 0.0729867094973929 0.405702463292521 0.19839
0.19841 1.73389180526463 0.791241266526377 2.53982125461433 0.0751658528284654 0.423992883770458 0.1984
0.19842 1.72615936846208 0.79111854185929 2.72903683302882 0.0719960265609675 0.432082143974368 0.19841
0.19843 1.61910521476094 0.662040170090525 2.70272476288321 0.0619219763205507 0.431419447771699 0.19842
0.19844 1.95092926074951 0.617826322843511 2.61544048259397 0.0735534219329662 0.467556297844819 0.19843
0.19845 1.82750900181276 0.591639683351519 3.06175677178339 0.0668122975991288 0.472756399626107 0.19844
0.19846 1.61471949876978 0.862359663582369 3.05150288950525 0.0724922572696993 0.468750793674916 0.19845
0.19847 1.46307434397093 0.661809505392454 2.9419827737439 0.0577726715885932 0.453269100212249 0.19846
0.19848 1.57292525418212 1.05479300313121 2.90983297832339 0.0718746966745271 0.458333111586372 0.19847
0.19849 1.48816733238524 1.17233106443661 2.71976087797204 0.0778927164785281 0.415432105744509 0.19848
0.1985 1.76558714061758 1.02341975915588 2.65007315283622 0.0754591104204087 0.440218498122309 0.19849
0.19851 1.72505912395493 1.03496571077884 2.51912730224343 0.0811125553063894 0.394993817146321 0.1985
0.19852 1.71681646682382 0.901349599051909 2.69931202952612 0.0714172420677904 0.43815503258173 0.19851
0.19853 1.7370075871541 0.82305503602716 2.64106136229546 0.0692829650823644 0.443314326670258 0.19852
0.19854 1.77700311028387 1.20226591692479 2.81709976168151 0.077924450012287 0.463492269246683 0.19853
0.19855 1.95245715568916 1.0892662286763 2.70104219072128 0.079988646186128 0.432410542407767 0.19854
0.19856 1.57781605956307 1.08081308951668 2.80600990312873 0.0837957476666968 0.44373415736684 0.19855
0.19857 1.69070786759582 0.636248121015136 2.81856608457509 0.0694520631659096 0.4290898167494 0.19856
0.19858 1.68981580150152 0.724715888042154 2.75257530316096 0.0659210480885677 0.44903504583337 0.19857
0.19859 1.92243916761641 0.654691130847995 2.5575380204187 0.076695842127825 0.415020938199292 0.19858
0.1986 1.96746422243133 0.804003333312774 2.72587118805796 0.0795574320157066 0.453596477758255 0.19859
0.19861 1.71408551801037 0.784665692906569 2.53041574473571 0.0691822401459154 0.397882641148333 0.1986
0.19862 1.76873683000176 0.988643019844442 2.68507170414195 0.0771337163383139 0.454606317161505 0.19861
0.19863 1.66601025965736 0.77753414068949 2.70723599660475 0.0653863100558409 0.420032825407647 0.19862
0.19864 1.71986699687929 0.676303116402367 2.62119454477038 0.0674195604891638 0.442357497852455 0.19863
0.19865 1.52731046658758 0.745630280849203 2.75203824315216 0.0620418536726335 0.424429475017026 0.19864
0.19866 2.0197387533789 1.05466298495506 2.83668240583871 0.0896820383988984 0.476955882758912 0.19865
0.19867 1.9943236950845 0.909849046233991 2.88642094372899 0.0824792330420583 0.480153998126211 0.19866
0.19868 1.51899000234893 0.571404187395964 2.82937355253598 0.0601985292288132 0.450706052754376 0.19867
0.19869 1.01508297334748 0.670912116049874 2.71416166086786 0.0424074305796499 0.4122860334605 0.19868
0.1987 1.34258030248407 0.605300359717601 2.57660581282387 0.0506977635113105 0.415217960446397 0.19869
0.19871 1.66843886650259 0.922117701582695 2.60918948464367 0.0697774667175536 0.415026681671176 0.1987
0.19872 1.87605495776775 1.19157492171086 2.63697654540383 0.0832715456645594 0.434988408439691 0.19871
0.19873 1.82072077984522 0.826098873431401 2.71544305747819 0.0750170940981692 0.441962135023313 0.19872
0.19874 1.62504486281652 0.638847833516284 2.94725393698933 0.0533939237849934 0.471488247278427 0.19873
0.19875 1.69274748450689 0.642859872530125 2.81725305172855 0.0751778095322458 0.440196699822514 0.19874
0.19876 1.92824325982043 1.02931756432155 2.84988413448523 0.0824094748650405 0.458769456532221 0.19875
0.19877 1.79110314226867 1.20029443326447 2.63819313996662 0.0865386685177539 0.451962846580918 0.19876
0.19878 1.45984536871169 0.585141707843919 2.65940759372885 0.0541981193482217 0.420700063159694 0.19877
0.19879 1.31343741859191 0.469060569605983 2.74314383931213 0.041504821899013 0.428969536432691 0.19878
0.1988 1.76589944040693 0.624401549036079 2.68717902775258 0.0649815689619578 0.452329267413515 0.19879
0.19881 1.88104053665363 0.961784292188855 2.57976015451827 0.0833153640186858 0.40716518839262 0.1988
0.19882 2.09410686054552 1.20292395607333 2.5008792576926 0.0969011639760454 0.406664434080086 0.19881
0.19883 1.80809116694847 0.856512941164067 2.40107394631267 0.0782670982229624 0.390598322519957 0.19882
0.19884 1.62776447157829 0.877209560845799 2.51022223609958 0.0651287736128145 0.407228442807187 0.19883
0.19885 1.65733056204865 0.668789539159994 2.71202117633311 0.0590061718578354 0.449107416054395 0.19884
0.19886 1.81763148283635 0.760531639243189 2.95553309917037 0.0708449672644985 0.488648834270456 0.19885
0.19887 1.74879875300315 0.676220826004053 2.91331663256142 0.0629494507196887 0.457271234543212 0.19886
0.19888 1.50606525928439 0.720253446749283 2.97524087404067 0.0654521217606932 0.451606058077277 0.19887
0.19889 1.43621818374642 0.93334468796382 2.86618533493745 0.0713719586015906 0.41741825835476 0.19888
0.1989 1.7780136208591 0.921888821021201 2.80559750578536 0.0676394218168897 0.469173485135203 0.19889
0.19891 2.15968489347694 1.20866929412839 2.80124686597998 0.0972965054074501 0.453468196034681 0.1989
0.19892 2.26300393707457 1.1865621811645 2.8021484789433 0.0961330269113632 0.483028613484404 0.19891
0.19893 1.94649992784186 1.05946854620982 2.73412391445091 0.077768450651214 0.462871191836745 0.19892
0.19894 1.49385343962428 0.901452479978769 2.68969196684127 0.0606049836562733 0.423594841431423 0.19893
0.19895 1.68131884143032 1.02194939845744 2.59652591717969 0.0811906349047439 0.410366249665562 0.19894
0.19896 1.78074134490269 0.725354183216421 2.69164035714871 0.070851252924474 0.429580127724216 0.19895
0.19897 2.02084606657929 0.869449327651502 2.72296237567298 0.0806681965779206 0.428110663526185 0.19896
0.19898 2.10500826821667 0.600492371419774 2.66129163024874 0.078099584450606 0.458498017523749 0.19897
0.19899 2.06843183621307 0.769865773133318 2.89739935125515 0.0819027814575845 0.461276692971194 0.19898
0.199 1.81116878335972 0.598366606200763 2.62425777863024 0.0688805284942364 0.418296702978001 0.19899
0.19901 1.50214353861409 0.972202469626484 2.53470242515259 0.0673817142508731 0.423052919444533 0.199
0.19902 1.67272759015547 0.935692056304454 2.44652493423213 0.0673658968188521 0.407232727761931 0.19901
0.19903 1.72599121245007 1.20548961017943 2.53234482872675 0.0885569495430158 0.415870932491211 0.19902
0.19904 1.44849289515095 1.03047067067366 2.66242012824423 0.0711628353743457 0.422718596830664 0.19903
0.19905 1.7996953271059 0.967912636019905 2.88285223710877 0.0767433023826369 0.473498966327095 0.19904
0.19906 1.8120112990982 0.74033635271433 2.86673764134839 0.0784300763288796 0.436567318626773 0.19905
0.19907 1.85891734552913 1.1618366963337 2.76342315793675 0.089291012536147 0.443168294761191 0.19906
0.19908 1.73634367248715 0.780910605028879 2.93202430213276 0.0725772075702192 0.472211063770288 0.19907
0.19909 1.56908762160177 0.993568278335215 2.80498223023822 0.0699999303917785 0.431896444184803 0.19908
0.1991 1.36951082055447 0.969606601176546 2.82349299968918 0.0687646068134248 0.45400217711955 0.19909
0.19911 1.5970142047265 0.936640111301017 3.00621167032492 0.0667228038550577 0.494054618159743 0.1991
0.19912 1.62139845484729 1.01007695019123 2.98890806329078 0.0813237304368908 0.452457394935568 0.19911
0.19913 1.71710469519731 1.19519779589003 2.73850164059759 0.0795006383868661 0.454086562171282 0.19912
0.19914 1.60667975101217 1.000256161029 2.59348081257756 0.0727945757682262 0.42141655856812 0.19913
0.19915 1.46656828516472 1.06743527167658 2.69788178672824 0.0721062734099957 0.42572487862555 0.19914
0.19916 1.55010766788346 0.950906384115372 2.56436493785913 0.0684489818400561 0.400410122957205 0.19915
0.19917 1.74883244835171 0.917460194426175 2.57311203708619 0.0728870752538841 0.410235493721654 0.19916
0.19918 1.87393548193186 1.14307113783768 2.64724977195633 0.0833040893465183 0.433054891468373 0.19917
0.19919 1.65569322299308 0.708051588612589 2.67383515873135 0.0683219658897943 0.439838096134482 0.19918
0.1992 1.754344151495 0.758385375223488 2.72570353802574 0.0775206397207546 0.428216612807541 0.19919
0.19921 1.63254243622689 1.14830639234541 2.70866061651521 0.0760350603929803 0.444685679852742 0.1992
0.19922 1.72596991234905 1.16415878814141 2.58748469608145 0.0754408377127018 0.420215250888049 0.19921
0.19923 2.00688238791723 1.07350118474476 2.48216418436127 0.0916097994521956 0.438644488109527 0.19922
0.19924 2.3645404035704 0.967530326141218 2.8046883512728 0.095412990640982 0.481476968573812 0.19923
0.19925 1.864084809933 0.995368662345521 2.52664587386603 0.0807096135339769 0.430194107029548 0.19924
0.19926 1.79780560624722 0.759158265331903 2.96961535539541 0.0732640678441552 0.475837567168158 0.19925
0.19927 1.37188926768027 0.692994699370218 2.96826308461813 0.0611776844496532 0.458197746013251 0.19926
0.19928 1.62081916309093 0.750582814364847 2.79475147334028 0.0671113107688148 0.474067052083731 0.19927
0.19929 1.84348667465048 1.11160397615125 2.84737782845191 0.0868593043479754 0.44792538121033 0.19928
0.1993 1.89722723858505 0.828500851512472 2.91531028195648 0.0808333835507452 0.452039167785719 0.19929
0.19931 1.847278539544 1.02984145003499 2.80129375939615 0.0753104549952722 0.475208434064047 0.1993
0.19932 1.53079759340381 0.771980525991814 2.86911499834455 0.0613215264196007 0.444361004888975 0.19931
0.19933 1.68019831523367 0.94879970244519 2.7726931931046 0.066610225056817 0.441899442777499 0.19932
0.19934 1.60601182850507 1.14496093826806 2.76923959544542 0.0839187953881305 0.438031111009004 0.19933
0.19935 1.73295622711114 1.10342613273279 2.55966003291255 0.0811075579869899 0.406391453176372 0.19934
0.19936 1.78767889706806 1.18140325672239 2.67918433513459 0.0776006561698219 0.425573511768918 0.19935
0.19937 1.5421352490139 0.552961842751685 2.74407635897524 0.0578233544286288 0.437316488172734 0.19936
0.19938 1.64847716550818 0.786380875821745 2.86069039711664 0.0705772806902411 0.456990441058448 0.19937
0.19939 1.5674760374024 0.660245981662841 2.77561857828774 0.0701465930772312 0.435574887754502 0.19938
0.1994 1.51924664687601 0.921390979282208 2.72666373046688 0.0678594564812359 0.434169407974852 0.19939
0.19941 1.38075815125328 0.955149454714407 2.64787542206065 0.0646261836083495 0.423365089977353 0.1994
0.19942 1.26129728398871 0.724475274822138 2.54236899841338 0.0499658944899457 0.378170468849794 0.19941
0.19943 1.77097595257685 1.04467211647325 2.8454235849397 0.0715332873719962 0.459495219537061 0.19942
0.19944 2.03760274668553 0.978104322117005 2.77490115513346 0.0919689524352337 0.439842392901049 0.19943
0.19945 1.81029048812183 0.968804777506137 2.75827220219257 0.0796794207847478 0.444825642688141 0.19944
0.19946 1.37017227911404 0.997463666459209 2.55638104935712 0.0567629450918847 0.412115711796824 0.19945
0.19947 1.3350822420197 0.930266310298896 2.51760093011528 0.0699292418286726 0.381766600314149 0.19946
0.19948 1.77736782836612 0.745894499579411 2.7169325514976 0.0691896633196834 0.435720734142631 0.19947
0.19949 1.8742503088667 0.522771801138388 2.83216641157455 0.0654575779791726 0.474706970521446 0.19948
0.1995 1.7900661156186 0.47861567325877 2.85704570630326 0.0545827698254456 0.480550195757321 0.19949
0.19951 1.88388109449783 0.723698603744895 2.68539179477778 0.0762138997486814 0.443937403027013 0.1995
0.19952 1.96309674915103 0.947576793524233 2.61247076258042 0.083980591777246 0.427708970238162 0.19951
0.19953 2.02105984535531 0.903951112577812 2.56113732314506 0.0839932134967072 0.427025694097771 0.19952
0.19954 1.80749932797211 0.985136370184263 2.89720883943043 0.0762302191973968 0.467180779820551 0.19953
0.19955 1.91960025077021 1.02881375726246 2.92559538571484 0.0900170576123294 0.473907280265485 0.19954
0.19956 1.6234373546859 0.937353272299654 2.84020872492909 0.0712801350609455 0.464464169734732 0.19955
0.19957 1.83642904332432 0.763804877640765 2.77598834283262 0.069976817942823 0.455559629264925 0.19956
0.19958 1.54256073289246 0.797999296870085 2.665348563439 0.0654744134892918 0.426709527163556 0.19957
0.19959 1.69514839319688 0.930311435551806 2.7469115127121 0.0752085402844011 0.412267142247453 0.19958
0.1996 1.39881332953027 1.06208758809728 2.57149142280253 0.0726656640391021 0.427233983183043 0.19959
0.19961 1.63407376246516 0.590016291198276 2.59459824212276 0.0584915735366874 0.419264873190093 0.1996
0.19962 1.95290177757764 1.37823028835831 2.6693226331865 0.0930373504975937 0.412403570084311 0.19961
0.19963 1.99281223503771 1.07657428578941 2.55140138715854 0.076746594493987 0.438349481612794 0.19962
0.19964 1.77001640658394 1.20539905875439 2.74283844657683 0.0866596226343724 0.444137805635072 0.19963
0.19965 1.61050032243331 1.13531996155829 2.71466554751164 0.077599339257193 0.416958297855943 0.19964
0.19966 1.48327611074161 0.634179971836927 2.80342710559377 0.0506631451885587 0.448373138914831 0.19965
0.19967 1.42208671450539 0.761675994438326 2.78378138911579 0.0675524131577653 0.405510423519089 0.19966
0.19968 1.44178015262978 0.674597008024848 2.44268714677716 0.0626623842712141 0.410053540868796 0.19967
0.19969 1.88357976718744 0.87621655906847 2.73893454257905 0.0786257700992072 0.455195391322713 0.19968
0.1997 1.96607956226724 1.09438190112651 2.64809540579728 0.0882885151633103 0.415001012705202 0.19969
0.19971 1.85580522059968 0.972884361849565 2.78710279132747 0.0840889351818324 0.450176773383793 0.1997
0.19972 1.78950476490692 0.770428102490298 2.85326372113128 0.0698890242200721 0.456661108348927 0.19971
0.19973 1.49438323971947 0.909193272814894 2.70225192498473 0.0611949864799496 0.433757058168475 0.19972
0.19974 1.55699573850863 1.33016219758472 2.51533741111741 0.0857230469282922 0.430276972538818 0.19973
0.19975 1.91695670057375 1.431296201187 2.95129401197161 0.0977525566136815 0.484002456313785 0.19974
0.19976 1.88593181612687 1.07042096654097 2.79669137540151 0.0943439525635334 0.452629895852969 0.19975
0.19977 2.16895969808763 0.749609771368173 2.92691565425587 0.082009029169151 0.496789683895743 0.19976
0.19978 1.88008205992362 0.550158054300125 2.92258167816126 0.0662060881532066 0.472394192565275 0.19977
0.19979 1.81982705323258 0.564611496795649 2.72264796745318 0.0655098174063635 0.440262797334864 0.19978
0.1998 1.96394250126877 0.966296910397556 2.69460565519938 0.0797319893475638 0.439173681106721 0.19979
0.19981 1.62885792250517 1.57684577300031 2.71451803445731 0.0877432010252263 0.436085572476365 0.1998
0.19982 1.59051128408781 1.18797990316232 2.73274288134135 0.0802677233040222 0.427578552072757 0.19981
0.19983 1.95660046902382 1.17127908740782 2.91764790089485 0.0922475142563329 0.453560949312861 0.19982
0.19984 1.98383877221533 0.947414417709373 2.79641900914221 0.0815487941678165 0.46691364575269 0.19983
0.19985 1.95677284700342 0.769382708152703 2.82868480755699 0.0731005631938785 0.448162947474677 0.19984
0.19986 2.03389823257029 0.8480065501144 2.62939574632169 0.0855738584717517 0.435947618912624 0.19985
0.19987 1.68350241102521 1.05704014258012 2.64341920360312 0.0759730774197926 0.404791397918532 0.19986
0.19988 1.27326576126055 0.990424452333045 2.51507381162121 0.0704696963123084 0.408000701584024 0.19987
0.19989 1.58376196343656 1.03884336793142 2.62726238711487 0.0680967727006364 0.41517705737294 0.19988
0.1999 1.76174043038437 1.00051991937945 2.80502180571184 0.0776735937875436 0.440216730028924 0.19989
0.19991 1.61667574006161 1.03064624586548 2.75423601865771 0.0721881517461707 0.449993819788951 0.1999
0.19992 1.73406904195908 0.791902807923046 2.70001791056569 0.0749440052952712 0.432053054379928 0.19991
0.19993 1.73035676839791 1.09928272772363 2.58236655719626 0.0812611262127858 0.422986156381211 0.19992
0.19994 1.71995376732045 0.630187311841704 2.52270218108483 0.0692388535496763 0.418118806627491 0.19993
0.19995 1.45524573066693 0.910865899401303 2.66394432024335 0.0622988046808144 0.425009908408193 0.19994
0.19996 1.36988263290775 0.958017611952274 2.59865899617006 0.0712877802346352 0.383464407892041 0.19995
0.19997 1.4158174116506 0.905437331210264 2.19326154067622 0.0696675322407275 0.36054390138036 0.19996
0.19998 1.33087692381559 0.574123413146457 2.26589699381942 0.0525111267824991 0.363785213497992 0.19997
0.19999 1.48350175071725 0.802347328204818 2.20444351450711 0.0617921708499301 0.374809037913619 0.19998
0.2 1.61238561411692 0.833971604387256 2.34456856457508 0.0712301116819567 0.395746546387989 0.19999
0.20001 1.14605236099449 0.563038174467327 2.20334027562413 0.048112918293738 0.335200642023732 0.2
